power_scalef,thermal_expansion,grainradius_scalef,midplane_hoop_stress_clad,fis_gas_released,midplane_hoop_strain_clad,max_hoop_stress,ave_temp_interior,avg_clad_temp,max_stress,centerline_temp,midplane_vonmises_stress,max_vonmises_stress,rod_input_power,rod_total_power,midplane_hoop_strain_fuel,labels
1.20792696258,9.87703668211e-06,0.857815377194,10223047.1685,2.69115193454e-05,0.0,11568861.0382,688.424491081,657.542553276,65244907.9618,1891.17193898,56184072.3661,66960624.1622,5014.10482167,5002.23425041,0.0,0
1.15386221722,9.91727901697e-06,0.928954101973,-5352212.77281,2.15061385096e-05,0.0,5469036.18037,685.076372972,654.189088961,65971970.6165,1825.96293974,46821010.5415,68351161.9707,4789.68206368,4778.80327229,0.0,1
1.07019899726,9.49207440555e-06,1.02943881226,-35620479.1353,1.40826583311e-05,0.0,5824759.81013,680.211113264,648.802663461,67004606.9083,1720.84095577,34731912.347,70353475.5933,4442.39603763,4433.87545885,0.0,1
1.06661328792,1.01218681283e-05,0.876952431134,-34618342.8767,1.61049837949e-05,0.0,5795984.04757,679.607029932,648.572120794,66910058.2246,1716.02279719,34732146.1402,69964108.68,4427.51175816,4419.04644194,0.0,1
1.06072931404,1.01742250462e-05,0.895284542082,-37868579.8741,1.55050849603e-05,0.0,5809651.0627,679.248708249,648.188137751,66952897.241,1708.47295201,34638965.8636,69931711.5903,4403.08738258,4394.71367006,0.0,1
0.988006091316,9.83319355928e-06,0.967258826328,-95360028.7418,1.35647020877e-05,0.0,5993951.88488,679.980149364,643.574552498,67378377.8903,1613.51967409,70229194.1906,70472820.4443,4101.21328505,4094.0503952,0.0,2
1.05429586912,9.78092420138e-06,1.04930191512,-45060571.8996,1.37800383605e-05,0.0,5813543.58339,679.243386052,647.773723398,66952957.9565,1698.07636352,35867072.4193,70504724.9541,4376.38215272,4367.43619622,0.0,2
1.08478528678,9.56551748947e-06,1.09900368714,-28835373.6382,1.42111115482e-05,0.0,5774128.82055,681.081195906,649.833143877,66867322.6063,1739.13547174,35715126.6837,69440290.1141,4502.94372542,4494.00198442,0.0,1
1.1350438834,9.78975206543e-06,1.06501281011,-10983811.169,1.85880816746e-05,0.0,5611524.76477,683.882575086,653.012532557,66408100.3286,1804.45888421,43883353.688,67717169.647,4711.56715999,4701.88574542,0.0,1
1.13024929982,9.40711643945e-06,0.738598087477,-13448527.9395,2.31131001239e-05,0.0,5653642.15254,683.933576238,652.689294037,66553490.8753,1800.3753516,42455049.048,68605424.8914,4691.66484355,4682.5794917,0.0,1
1.10716958752,1.01354548951e-05,1.12341439178,-20373265.4076,1.61232200774e-05,0.0,5706930.76554,681.967991591,651.259180652,66690119.8152,1769.52260193,38297401.3428,68825114.6364,4595.8609578,4586.95217585,0.0,1
1.21124467665,1.00994236262e-05,1.01382636926,11273484.7188,2.44638140991e-05,0.0,12566833.7158,688.40109502,657.757416429,65186041.5807,1894.2620808,56952858.6875,66450110.7395,5027.87665277,5015.8317685,0.0,0
1.03375671467,1.02506531388e-05,0.976919003364,-55744950.8193,1.39678504564e-05,0.0,5842070.42046,677.962865466,646.469441989,67016008.5558,1671.17713837,40206087.1393,70866114.953,4291.1241226,4282.60224728,0.0,2
1.09479734471,1.02814442995e-05,0.685285067735,-23756769.5281,2.13322356615e-05,0.0,5709111.5343,681.329817892,650.46042411,66682102.7168,1754.17760826,36798012.8953,68863069.3657,4544.50377789,4535.88882242,0.0,1
1.12035094524,1.0154177369e-05,1.05315833445,-14134319.6049,1.77513729333e-05,0.0,5623983.58988,682.712205169,652.026825935,66432510.6807,1784.65847773,41860455.0387,68451175.3456,4650.57677369,4640.86359407,0.0,1
1.01132509254,9.28771318845e-06,1.10795320203,-89578349.4092,1.24462885117e-05,0.0,5992161.94832,678.600237988,645.077297815,67410385.3379,1643.39902027,65236863.9552,71261486.3778,4198.01045913,4190.94138029,0.0,2
1.19368142417,9.70177732831e-06,1.15551996781,5771234.45575,2.00782538457e-05,0.0,7372536.54009,687.494178309,656.693672568,65600163.0991,1873.99302081,53231096.3118,66876988.7208,4954.97159173,4943.28376525,0.0,0
1.1336805974,1.03077877913e-05,0.815525025898,-11075357.9914,2.33335925313e-05,0.0,5602788.9943,683.555530588,652.933399091,66389631.8144,1804.3370354,43626807.9119,67717617.6222,4705.90815981,4696.79407863,0.0,1
1.15302758489,1.03654117169e-05,0.863283183515,-5421281.48841,2.45766901272e-05,0.0,5533947.5226,684.771889682,654.211697394,66164552.8014,1828.80652767,46724339.8756,68397492.7105,4786.21750488,4776.76971173,0.0,1
1.13296136395,9.68442653332e-06,0.930850025184,-11691143.9924,2.02962323568e-05,0.0,5611519.99814,683.882777712,652.871103507,66418730.1903,1801.9650439,43435422.055,67532403.8092,4702.92262176,4693.27576662,0.0,1
1.1530923897,9.43738356391e-06,1.03934926213,-5883341.37335,1.9928122835e-05,0.0,5563986.67973,685.17917877,654.158179767,66295635.7944,1827.33958142,47124950.9028,68966215.736,4786.48650964,4776.49352478,0.0,1
1.09191129138,1.01456980204e-05,0.853469633887,-24970171.4778,1.82316284594e-05,0.0,5731243.64714,681.134689959,650.237229732,66752356.2146,1749.8966352,36464216.4502,69065121.5429,4532.52377052,4523.85530784,0.0,1
0.974758078863,1.00527032753e-05,0.853567290167,-94429156.6203,1.5053178401e-05,0.0,5974532.77234,682.337448354,642.71193046,67308220.4796,1612.97246257,69409727.7447,69643255.3741,4046.22078536,4038.71359228,0.0,2
1.11921797417,9.92646355882e-06,0.863058623456,-15064465.4421,2.01704073037e-05,0.0,5651454.50268,682.84473276,651.951264548,66516750.2712,1784.60253707,41274046.6681,69162214.0469,4645.87381078,4636.57961168,0.0,1
1.08649870109,1.01855907568e-05,1.0872638412,-26732991.5159,1.50221038439e-05,0.0,5761519.068,680.739791622,649.937857021,66837980.6374,1742.62636204,36019509.0527,69254244.8961,4510.05610822,4501.47224813,0.0,1
1.0246214049,9.91256416485e-06,1.09231794732,-67015873.1769,1.26692539789e-05,0.0,5932671.39985,677.863736672,645.906905507,67283657.6783,1661.43268933,47343509.9815,70994745.6705,4253.20345174,4245.94565955,0.0,2
1.13004269249,9.82906425085e-06,1.08542733447,-12242010.1071,1.78708765557e-05,0.0,5630035.56232,683.516981333,652.676644574,66458858.2466,1798.06095689,42999362.8657,67597785.4851,4690.80721653,4681.23505491,0.0,1
1.0593616001,9.94216559537e-06,0.9117687409,-39463553.9632,1.51648139519e-05,0.0,5823040.40765,679.34494031,648.099397677,66987338.5629,1706.59462537,34791842.8687,69808984.5126,4397.41000202,4389.05759217,0.0,1
1.16428874845,9.52484552544e-06,0.859237617549,-1433227.33405,2.27235347692e-05,0.0,5442292.7388,686.01533967,654.886058153,65883112.2103,1838.8316629,49447240.1877,68014524.4139,4832.96259482,4821.90989801,0.0,0
1.11967718433,1.0155668658e-05,0.65473446276,-14169088.3884,2.39016124664e-05,0.0,5588579.49766,682.89723369,651.970001287,66322118.6435,1784.26918847,41756743.7076,68436448.9939,4647.77999215,4638.07814604,0.0,1
1.00965290633,1.01691036449e-05,0.906597868488,-83927686.7384,1.44973989472e-05,0.0,5871624.43792,677.690020946,644.9322282,67043869.5579,1637.85969815,60302039.8503,70683723.6736,4191.06921418,4182.60339783,0.0,2
0.982455419537,9.60097199175e-06,0.884831708398,-94980546.6049,1.47730600003e-05,0.0,6011833.34349,682.180977995,643.219793022,67432325.2727,1619.31956393,69895123.0523,70134225.7333,4078.1724465,4071.16608916,0.0,2
1.24614440397,9.52436977035e-06,0.835428881237,18514632.0087,3.06216816626e-05,0.0,20075727.9205,691.07460511,659.976018905,64787815.53,1936.17035384,62817497.1712,67126650.3377,5172.74542088,5160.28750103,0.0,0
1.09027985685,9.71457253444e-06,1.1698462121,-26504568.8334,1.40159849348e-05,0.0,5773655.43166,681.255616394,650.179228237,66879051.1899,1747.33144881,36204274.6181,69434614.517,4525.75168578,4517.01101867,0.0,1
1.29072463696,9.73387538362e-06,0.895280829735,26576215.7193,3.38186951583e-05,0.0,28117011.176,693.439115662,662.570415523,64119214.0376,1985.80605182,68284167.8281,69227901.2721,5357.79796802,5344.61183663,0.0,0
1.06310205089,9.9336847571e-06,0.852216768828,-37736161.9623,1.60021886171e-05,0.0,5810445.01287,679.579147704,648.343111217,66955581.5948,1711.61799496,34672025.4717,70043421.6165,4412.93661324,4404.52589174,0.0,1
1.15236603037,1.02247934209e-05,1.13446104235,-6005663.80821,1.97336677569e-05,0.0,5569845.35135,684.599900233,654.12308153,66312006.8362,1827.75084905,46521338.3892,68610930.0951,4783.47139207,4774.03254631,0.0,1
1.07704179316,9.9373584066e-06,0.78302377851,-31019855.3639,1.78256256794e-05,0.0,5781103.78466,680.302835265,649.191486434,66891051.7735,1730.48221311,35273809.7997,69405904.6763,4470.80048341,4462.36362426,0.0,1
1.06384029848,9.46148069045e-06,1.04153923895,-38717755.7039,1.36330133109e-05,0.0,5841774.82697,679.894523036,648.394571383,67045268.5792,1712.43838984,34806000.0459,70131240.2022,4416.00107899,4407.58005666,0.0,1
1.16291984299,1.00638810258e-05,0.975065824553,-601701.201937,2.12058953992e-05,0.0,5442626.94172,685.493167069,654.791063698,65864563.8583,1836.75281724,49556050.7284,67686771.8465,4827.28026825,4816.38222777,0.0,1
1.05309799961,9.73571515663e-06,0.815934576433,-42633222.0902,1.55638274248e-05,0.0,5834102.2326,679.222244779,647.704348617,67006944.9784,1697.79506634,35278211.5288,70684845.9283,4371.40979638,4362.97198192,0.0,1
1.1891500472,9.72957077035e-06,0.913120720742,5387357.18119,2.3950086799e-05,0.0,7058088.88953,687.284556291,656.412187526,65706301.9828,1870.3016188,53152126.7272,67010864.4629,4936.16184593,4925.20084341,0.0,0
1.06322736937,1.02513264779e-05,0.903664650271,-36795928.7313,1.56988835116e-05,0.0,5804557.38228,679.327017356,648.351128986,66936774.8976,1712.06274694,34622041.9793,70053787.1695,4413.45681025,4405.13749419,0.0,1
1.17673726209,1.01104474924e-05,0.817056249251,1766359.16996,2.71190046644e-05,0.0,5420851.20729,686.420069603,655.653866674,65824794.7773,1856.90428707,50830263.5723,66890566.7965,4884.63637494,4874.34870832,0.0,0
1.13546444868,9.70959822748e-06,1.22725774769,-11182377.6291,1.63700838407e-05,0.0,5634169.85918,683.875955207,653.043791996,66483478.0904,1805.17699592,43760081.6494,67770371.7422,4713.31292647,4703.72736732,0.0,1
1.0189701005,9.98622039254e-06,1.18704622961,-73276801.3495,1.1813028988e-05,0.0,5948506.90111,677.664691784,645.553725543,67319512.151,1653.87104787,51908067.5379,70948996.3334,4229.74488718,4222.56756261,0.0,2
1.12644548149,9.76251068538e-06,0.955187812522,-13268721.1667,1.94491515369e-05,0.0,5583264.29104,683.44987543,652.408401535,66316126.4484,1791.57557676,42282812.2016,68012724.8783,4675.87519366,4665.56515213,0.0,1
1.20482467228,1.02298387544e-05,0.72624794171,9513524.5211,3.06868609992e-05,0.0,10864736.7393,688.196677633,657.342592309,65123123.7021,1887.38902764,55515675.7357,66672919.7341,5001.22721463,4989.33395976,0.0,0
0.941091886579,1.0023870703e-05,0.86543064939,-93142701.1067,1.41908746741e-05,0.0,6106974.16315,687.019566393,640.558243294,67671049.4656,1607.65910236,68276979.1461,68492097.8141,3906.47242119,3900.35924012,0.0,2
1.0107476431,1.01598062682e-05,0.864554811863,-78145577.3939,1.42410407414e-05,0.0,5888584.16807,677.498012019,645.011703266,67078871.5088,1639.74661503,55714675.2712,70676613.4824,4195.61346651,4187.43913664,0.0,2
0.976784241023,9.97920038001e-06,1.10865245338,-94709057.6278,1.25695664506e-05,0.0,6023154.53747,681.85958255,642.852708525,67462970.5475,1614.18991745,69655884.1028,69891284.6189,4054.63138449,4047.70875402,0.0,2
1.08870954211,1.02365822372e-05,1.0168042331,-25803186.691,1.60952282167e-05,0.0,5748253.58054,680.83040518,650.050709015,66801165.0045,1745.57157369,36216982.7374,69169783.0324,4519.2333093,4510.61493324,0.0,1
1.03718200468,9.83832435529e-06,0.862654124462,-56294288.1713,1.50816140623e-05,0.0,5892642.37675,678.419759646,646.713974969,67180023.5548,1678.31468689,40635884.868,71082876.3472,4305.34250143,4297.9059359,0.0,2
0.978160147035,1.00490841927e-05,1.02153358587,-94666276.5246,1.34352198878e-05,0.0,5963325.14584,681.407441036,642.927699053,67271606.4548,1610.47357074,69618482.8067,69855955.227,4060.34277034,4052.46491984,0.0,2
1.04899006232,9.58064471522e-06,1.08112087347,-47234930.137,1.30290991078e-05,0.0,5853179.81959,679.098645391,647.447887066,67060515.447,1691.73206089,36610346.3065,70921872.4203,4354.35774869,4345.8236939,0.0,2
1.01669053905,9.88288223002e-06,0.885022818901,-76917623.0071,1.43300889007e-05,0.0,5943950.54562,677.845931634,645.410026405,67295411.0762,1650.95735755,54730298.2677,71263247.5357,4220.2824276,4213.13745284,0.0,2
1.18468545372,9.94743684778e-06,0.920646365543,4309179.45931,2.37857730478e-05,0.0,5995854.2798,686.924571372,656.105004788,65596700.871,1863.44033857,52218044.7664,66893737.3625,4917.62931839,4906.21893255,0.0,0
1.17500376918,1.00184203534e-05,0.902221780514,2211641.56826,2.33745008969e-05,0.0,5395189.82976,686.29603383,655.530178261,65737444.3428,1852.14109511,51040424.5103,66961581.1229,4877.44064587,4866.40283777,0.0,0
1.14519520986,1.02159955528e-05,0.862600400854,-7568596.95212,2.29854306434e-05,0.0,5516798.02107,684.211248103,653.51494508,66124160.6356,1816.70532401,45582306.6876,68452237.509,4753.70531613,4743.54446878,0.0,1
1.01569593094,9.67241381357e-06,0.888092509482,-80109173.9883,1.43363185599e-05,0.0,5954911.39129,678.055924107,645.337330285,67321004.4865,1649.53945134,57289177.6494,70873495.19,4216.15380933,4209.02292975,0.0,2
1.157299737,1.00467878956e-05,1.01484668282,-2020458.49393,2.01425015438e-05,0.0,5506894.13616,685.090910095,654.458654405,66067280.6726,1831.13022202,48979707.2942,68079430.7945,4803.95120829,4793.65942232,0.0,1
1.1207867988,1.02191477218e-05,0.965122536183,-14493849.1562,1.90199353857e-05,0.0,5617342.16547,682.742714807,652.055597999,66402605.0908,1785.66636713,41636701.627,68396576.7078,4652.38600182,4642.76465637,0.0,1
1.09737320174,1.00064557448e-05,0.873437453459,-23594796.5244,1.83420388397e-05,0.0,5722951.29006,681.583181123,650.63039623,66732946.7455,1757.02036129,36934016.3432,69024639.9537,4555.19616042,4546.44198055,0.0,1
1.18290549718,1.02068976282e-05,1.14543758568,5011249.56105,2.00088643574e-05,0.0,6611706.09728,686.429028005,656.007412504,65780939.2015,1861.93334158,52704702.8698,67069094.0075,4910.24071879,4899.48951978,0.0,0
1.10610352794,1.01261111043e-05,1.02474624879,-20672250.7581,1.73568231619e-05,0.0,5702998.31292,681.961616151,651.195649814,66675728.9314,1768.24227365,38120594.4479,68754820.9698,4591.43574448,4582.54384007,0.0,1
1.23118122787,1.00997453045e-05,0.889250790229,15630538.0639,2.88149124544e-05,0.0,17119789.1882,689.603684355,659.001000518,65106005.6223,1919.59894623,60590126.1549,66725266.3426,5110.63327689,5099.00294412,0.0,0
1.18109503854,1.02168256654e-05,0.971718142351,4319354.09684,2.28444579578e-05,0.0,6082827.81647,686.452162724,655.887511229,65688339.3041,1859.58616162,52219760.3095,66984758.6412,4902.72550498,4891.78828304,0.0,0
1.19099418296,9.73962502911e-06,0.948061092013,5336643.4892,2.35220949976e-05,0.0,6980584.30374,687.445437095,656.514161458,65543985.172,1871.03315326,52946109.0791,66842338.6582,4943.81685347,4932.17874848,0.0,0
1.0059409242,1.03900975942e-05,0.782401268912,-86208574.8301,1.5486512128e-05,0.0,5867572.03283,677.560080689,644.69797958,67031125.3622,1633.19562426,62322204.0971,70590462.2445,4175.66077635,4167.33886342,0.0,2
1.00127457724,1.01016531319e-05,1.01840348271,-95846465.0364,1.34300974316e-05,0.0,5901478.20641,678.156102922,644.402878608,67122147.025,1626.59205142,70657171.2661,70657171.2661,4156.29077012,4147.96418072,0.0,2
1.11969758285,9.75305004356e-06,1.13279275014,-17045543.5756,1.65316636562e-05,0.0,5684090.29119,682.889778409,651.986437659,66624971.6593,1785.64513991,40307932.4123,69432940.2312,4647.86466641,4638.65279315,0.0,1
1.13536324395,9.99372073798e-06,0.882252822483,-9778446.97147,2.14957997724e-05,0.0,5585119.06995,683.839873328,653.033898074,66334815.7275,1804.77256728,44676577.735,67864329.3652,4712.89282564,4703.23496636,0.0,1
1.00614909527,9.57907130078e-06,1.08876724839,-93133355.436,1.23674263496e-05,0.0,5966605.41178,678.412074691,644.733987112,67313039.4568,1634.95171583,68272367.7163,71069084.8841,4176.52489447,4169.01094676,0.0,2
1.15536312533,1.04874898318e-05,1.01510390049,-3062024.26898,2.05244149584e-05,0.0,5452125.80816,684.780977028,654.316339476,65896114.7027,1827.39664582,47760693.8854,67786577.6758,4795.91233324,4785.13413714,0.0,1
1.19012282175,9.95844014936e-06,0.960499033075,5721661.37526,2.34539351676e-05,0.0,7275266.07152,687.250853178,656.462089735,65508014.8726,1869.56958987,53052820.1831,66664381.2596,4940.19983308,4928.58606107,0.0,0
1.13524242563,1.00526076948e-05,0.92226869087,-12025973.4392,2.11897445244e-05,0.0,5527638.73042,683.913560015,653.004472008,66154640.5393,1803.17824244,43171396.557,67483939.7117,4712.39130879,4701.91333197,0.0,1
1.02386701389,1.00578017531e-05,0.795009534963,-66238620.0321,1.53183691785e-05,0.0,5907890.43258,677.792428274,645.853724363,67205087.5314,1660.20744324,46793554.9499,70882834.127,4250.07197466,4242.73528213,0.0,2
1.02642326029,1.00028349963e-05,0.976020808538,-63537251.2139,1.38852854562e-05,0.0,5911666.18216,677.8644479,646.018180475,67221859.4765,1663.5091237,44949318.0741,70854269.191,4260.68295346,4253.30938885,0.0,2
1.03161277985,1.00595031736e-05,0.754594930788,-59927540.4379,1.59404447457e-05,0.0,5842733.21845,678.153175709,646.33688108,67013522.2748,1668.69238649,42625718.2476,70980495.878,4282.22464916,4273.82413727,0.0,2
0.926705274496,1.0536705631e-05,0.747463582779,-92139389.797,1.48328339896e-05,0.0,6045227.30086,687.893249833,639.609118381,67448857.6209,1597.11469746,67394226.4354,67600156.9034,3846.75359443,3839.67320785,0.0,2
1.16742495022,1.01640066732e-05,1.08523342254,807397.67331,1.98686559555e-05,0.0,5461827.11704,685.594475242,655.081834452,65933349.6655,1843.11672737,50312587.8752,67577545.9221,4845.98096836,4835.39378783,0.0,1
1.06594442253,1.00930697502e-05,0.988584266179,-35815392.1193,1.47809695669e-05,0.0,5805706.33092,679.560383636,648.527773888,66938566.3715,1715.26672737,34653586.6685,70071029.5894,4424.73529792,4416.28015438,0.0,1
1.2535457055,9.81824670877e-06,0.904840844242,20090306.2811,3.06038713355e-05,0.0,21796453.6683,691.357007116,660.415902917,64620907.8068,1943.83956163,64114738.1217,65000228.8595,5203.46822353,5190.73362193,0.0,0
1.02300782672,1.00723806683e-05,0.912976184266,-68213585.2029,1.44733214419e-05,0.0,5863774.06101,677.842391477,645.788474734,67062355.8956,1656.69376747,48155233.7817,70822605.317,4246.50548871,4238.15707949,0.0,2
1.15285922638,9.8397605124e-06,0.660321664995,-7286591.80209,2.82684804524e-05,0.0,5422963.47546,685.374261743,654.120187177,65845106.5432,1825.61568137,45648625.2175,68133581.6964,4785.5186487,4774.60040555,0.0,0
1.07635904817,1.03907770635e-05,1.06781272872,-31727343.7614,1.49773411113e-05,0.0,5710378.91859,680.107661244,649.254981766,66658039.4635,1726.51187487,34881314.7467,68936291.5405,4467.96640895,4458.32460933,0.0,1
1.1007667438,1.04034070583e-05,1.015667166,-20019224.5466,1.69768164591e-05,0.0,5644477.73455,681.505254541,650.838939763,66459564.2666,1758.38023552,38557833.7614,68461595.8344,4569.28275351,4559.4213031,0.0,1
1.06753795802,9.9238446569e-06,0.982335964986,-35763767.0122,1.48467065925e-05,0.0,5808134.69236,679.774464347,648.630901675,66956422.6339,1717.35890143,34696524.2062,70130510.9038,4431.35006374,4422.86997377,0.0,1
1.03648774548,1.0395052132e-05,0.959721934415,-52658671.5328,1.44436125375e-05,0.0,5821043.5756,677.947816529,646.625470989,66959494.0223,1674.42289493,38591617.584,70784570.1796,4302.46063149,4293.80798243,0.0,2
1.230139811,9.86022380053e-06,0.994201871083,15355287.558,2.60369321644e-05,0.0,16772811.5148,689.718682732,659.025538841,65159448.6456,1918.02292674,60389612.661,66790028.5166,5106.31035546,5094.60514027,0.0,0
1.08609194673,1.02379412042e-05,0.831183262418,-26637324.2615,1.81261650088e-05,0.0,5742554.63756,680.787822163,649.910807177,66779798.6598,1742.30116981,35992328.0314,69173933.8769,4508.36767088,4499.79015491,0.0,1
1.17472323524,9.42485293118e-06,1.11900936451,1313821.27638,1.88372511892e-05,0.0,5463518.65558,686.472121875,655.541625378,65956043.6563,1852.12862182,50951144.7565,67817618.1719,4876.27614948,4865.3632273,0.0,0
1.07822362486,9.89924469591e-06,0.865710758431,-30655039.9603,1.68511128063e-05,0.0,5785147.94721,680.367487115,649.269874379,66904524.9511,1731.97177955,35380783.2837,69335501.5872,4475.70626679,4467.2510939,0.0,1
1.12799934664,1.0196744559e-05,1.02721452318,-11668469.0352,1.91942517931e-05,0.0,5649451.84762,683.12651824,652.559918209,66515752.6672,1796.69715576,43303915.1943,67765295.0349,4682.3252879,4673.32215903,0.0,1
1.01119710214,1.03450298253e-05,0.764229957499,-74814619.0852,1.47590426659e-05,0.0,5897899.64878,677.270153534,645.037404139,67118401.0059,1641.5639558,53077101.7249,70604207.5474,4197.47917098,4189.71885906,0.0,2
1.22461066707,1.01415867878e-05,1.06050869246,14149580.8881,2.45833253296e-05,0.0,15520193.335,689.178257333,658.662590651,65188591.1819,1911.08031721,59385588.533,66657386.0573,5083.35887901,5071.64804465,0.0,0
1.12020457762,1.05008218953e-05,1.11461488535,-13971954.5907,1.72336985555e-05,0.0,5619410.9686,682.454644796,652.016982877,66413604.5256,1784.73684276,41834955.0172,68023846.5194,4649.9692017,4640.35763253,0.0,1
1.11674961425,9.98907805762e-06,0.866358408794,-15610980.5991,1.9920749024e-05,0.0,5657113.95325,682.645503852,651.792659051,66532019.1464,1781.40454012,40968943.111,69334937.973,4635.62764875,4626.37444588,0.0,1
1.02607849306,9.91494900577e-06,0.812970788682,-65121250.3609,1.51568238236e-05,0.0,5915265.00276,677.987949187,646.004352656,67233839.0558,1663.52708711,46035322.0845,70902760.2505,4259.25182469,4251.9732234,0.0,2
1.1172954969,9.99277432372e-06,1.04386354972,-15380997.7476,1.75590898367e-05,0.0,5619130.89519,682.650807759,651.809919929,66405518.1319,1779.88053434,41069352.0249,69115397.6924,4637.89360763,4627.84077302,0.0,1
1.09957666148,9.81771751947e-06,0.937225973039,-23222446.1321,1.75369251638e-05,0.0,5732415.64222,681.821025255,650.780478268,66760338.4966,1760.00337728,37153948.0882,69218696.493,4564.3427218,4555.55375232,0.0,1
1.26277140344,9.97450269015e-06,0.876062029629,21966984.0646,3.2875236539e-05,0.0,23895183.9183,691.917303559,661.02296847,64460132.1025,1954.40959709,65542641.7282,66416660.0457,5241.76409568,5228.99772911,0.0,0
1.02048273189,1.01396729378e-05,1.0973950387,-70059045.0781,1.27884778806e-05,0.0,5878219.49163,677.647416379,645.625614653,67100842.8924,1653.20988772,49500674.2402,70978596.0183,4236.02382008,4227.71587636,0.0,2
1.135438529,9.64531569606e-06,0.983668129667,-11186250.0125,1.96672209208e-05,0.0,5616939.72665,684.033452324,653.040655258,66428861.8182,1805.40533114,43659559.0042,67695188.8779,4713.20533388,4703.62181628,0.0,1
1.08590114796,1.00669751986e-05,0.899203180236,-27254631.3654,1.71251220884e-05,0.0,5755127.43357,680.874980658,649.904972284,66815158.135,1742.00752715,35925883.9315,69270389.193,4507.57566518,4499.00112443,0.0,1
1.12409935503,9.56140540714e-06,0.762220228522,-14376230.1766,2.16851873447e-05,0.0,5615515.36992,683.497875145,652.265005843,66413486.9622,1790.12935573,41748121.65,68751760.4167,4666.13642273,4656.33562733,0.0,1
1.22059206727,9.92662040306e-06,0.996205621845,13445630.3918,2.54514010518e-05,0.0,14624373.1326,689.044773103,658.409694723,65333680.0007,1907.49144373,58806080.9731,66610925.1943,5066.67767124,5055.35009665,0.0,0
0.99829950033,9.96833694903e-06,0.727414798103,-95489741.0302,1.58183615808e-05,0.0,5897742.07052,678.807172662,644.216284689,67103431.9083,1622.77710048,70343714.6272,70679670.6841,4143.94122587,4135.66049618,0.0,2
1.17407353265,9.99347875866e-06,0.82385329378,2251476.6686,2.4789854206e-05,0.0,5389529.10037,686.305663191,655.473371853,65717195.5494,1851.00098361,51109710.5771,66961491.8403,4873.57923403,4862.55961911,0.0,0
1.17003073937,1.01540350139e-05,0.811657576412,1283887.44669,2.499796079e-05,0.0,5420223.12874,685.94939159,655.239329916,65808057.963,1846.87091498,50471514.8089,67424339.0266,4856.79759912,4846.16359711,0.0,0
1.13965861517,1.0144751563e-05,0.778821386558,-9476682.30048,2.39105110893e-05,0.0,5551053.77269,684.077980693,653.279557376,66236481.2147,1810.66008186,44613791.7047,67995305.5094,4730.72291157,4720.96439006,0.0,1
1.09499769801,1.0583121085e-05,0.939186711264,-22791574.3904,1.76165613698e-05,0.0,5693912.98319,681.060976532,650.491534881,66617356.546,1753.1853031,37080733.0379,68536867.197,4545.33544444,4536.32477389,0.0,1
1.15438991253,1.01375343396e-05,1.02151932986,-5659709.24625,2.16296176385e-05,0.0,5560068.74333,684.710049056,654.160626951,66282513.5689,1830.47808291,46751269.5113,68564884.9613,4791.87252691,4782.40199287,0.0,1
0.969303143148,1.00091263664e-05,1.00724345947,-94247481.4932,1.37753316157e-05,0.0,5997663.26486,683.132005004,642.361570084,67369207.592,1611.91085984,69249731.725,69480148.2197,4023.57734721,4016.15090696,0.0,2
1.05782492206,1.01267685352e-05,0.966804651031,-39460699.1198,1.46029245698e-05,0.0,5822768.48935,679.09911958,647.997400422,66987180.1771,1704.54130293,34788435.3124,69741493.6945,4391.03125147,4382.70274947,0.0,1
1.18300485252,1.03513767616e-05,0.812923989867,5313788.93959,2.63188613124e-05,0.0,6866647.99924,686.613488166,656.012755385,65558843.6284,1861.89508825,52696418.5272,66806326.3193,4910.65314281,4899.68471379,0.0,0
1.01507448122,1.01696848157e-05,1.25703394224,-78828701.699,1.14433147892e-05,0.0,5880227.72032,677.520423271,645.280136946,67088349.3434,1644.85876369,56239481.3695,70682057.2321,4213.57417154,4205.01929435,0.0,2
1.15381225922,9.93116848504e-06,0.907254108345,-5787479.35961,2.28423216732e-05,0.0,5514984.04452,685.050695762,654.205195333,66133662.0283,1828.08142447,46623356.9669,68547872.988,4789.47468802,4779.37395132,0.0,1
1.29044523815,9.67454532143e-06,0.887478672878,26420959.8352,3.38432137499e-05,0.0,28055281.9892,693.596041398,662.655847279,64126423.0344,1985.77276217,68270612.3821,69151244.6842,5356.63818356,5343.48779516,0.0,0
1.12112851798,1.07099970794e-05,0.967572838624,-13261878.365,1.95529685175e-05,0.0,5593350.9874,682.455659542,652.079300188,66339272.4389,1786.00804425,42215460.1587,67283478.9684,4653.80447813,4644.17841257,0.0,1
1.12817481365,1.00256881776e-05,1.01615648578,-12308328.5339,1.88599381132e-05,0.0,5602283.68905,683.223959795,652.467836921,66377297.5531,1794.78568149,42987709.4776,67299286.7458,4683.05365146,4673.20940536,0.0,1
1.11737188872,9.67952563125e-06,1.03983040355,-17880123.9475,1.7492829723e-05,0.0,5687834.85337,682.878719247,651.872287145,66647002.4344,1782.74881799,39887445.5538,69258743.5789,4638.21071008,4629.03731651,0.0,1
1.20341399339,9.9549357437e-06,0.642798516627,9522610.927,3.285016309e-05,0.0,10883936.0423,688.402455918,657.290613685,65119540.0205,1886.04100981,55583811.5791,66621735.5471,4995.37148656,4983.50401441,0.0,0
1.12150541435,1.02128764635e-05,0.973759406784,-14218327.1797,1.95964141442e-05,0.0,5659513.55192,682.739331771,652.120551176,66561551.9953,1788.41421054,41857349.8522,68612407.4768,4655.36897497,4646.44752405,0.0,1
1.0160596791,9.96552968716e-06,0.713372562867,-76843279.5327,1.56863288614e-05,0.0,5934106.40724,677.796495669,645.363919431,67262457.8342,1650.21746075,54663924.4827,70792617.2449,4217.66372794,4210.52769485,0.0,2
1.10634259043,1.01722571505e-05,0.672521720091,-18424906.192,2.24350751364e-05,0.0,5592763.95988,682.180182471,651.168927702,66318304.0378,1765.46809717,39492997.377,68714921.1523,4592.42809287,4582.37525037,0.0,1
1.10519712601,1.02243059671e-05,0.93082556406,-18744182.6762,1.8353940206e-05,0.0,5622669.35384,681.908391794,651.100160397,66409198.2034,1763.64702408,39341820.2595,68740450.7013,4587.67327007,4577.63895551,0.0,1
1.23754873794,9.71323846483e-06,0.794189087422,16932464.665,3.08401467725e-05,0.0,18402051.5172,690.393467513,659.44927906,64958155.7721,1926.84574096,61651410.0085,66860115.5307,5137.06481119,5125.10680766,0.0,0
1.08630616731,1.0110420599e-05,1.0018089531,-27011803.9459,1.60286775132e-05,0.0,5759213.42425,680.822340482,649.928582577,66828719.8803,1742.45281957,35963498.0163,69272440.2513,4509.2569005,4500.67604359,0.0,1
1.17325969418,1.01788626615e-05,1.04814690491,2196852.8334,2.08494110711e-05,0.0,5419167.00291,685.96934115,655.419150742,65798303.8263,1849.77850927,51046432.7479,67051876.3433,4870.20099054,4859.30095467,0.0,0
1.08911647392,9.83658292884e-06,0.775368418678,-26831371.7177,1.88372852931e-05,0.0,5746713.11769,681.277878764,650.108882773,66790548.3454,1746.33153448,36090663.4952,69310107.4776,4520.92248324,4512.29774793,0.0,1
1.13049642945,9.66613271095e-06,0.989030604006,-12278933.3498,1.92407110144e-05,0.0,5625908.7573,683.704435076,652.706885104,66459069.1079,1798.76180686,42976767.0243,67443626.6897,4692.69067865,4683.08547895,0.0,1
0.982980571219,9.63300144872e-06,0.747240502718,-94972271.5239,1.58682260071e-05,0.0,6002645.51787,682.067811413,643.253261222,67406307.4195,1619.19326547,69887910.2603,70127153.2656,4080.35235113,4073.33845813,0.0,2
0.925567576752,1.03231363458e-05,0.874145360482,-92162418.4165,1.4031875927e-05,0.0,6062113.02407,688.603889329,639.53759707,67499156.02,1599.01808977,67414399.1673,67619898.1663,3842.0310111,3834.96788198,0.0,2
1.14323613184,9.9238390699e-06,0.763827795644,-9177411.68698,2.48438844547e-05,0.0,5583638.11396,684.381965089,653.514025386,66338588.0877,1816.74233974,44841651.2425,68352503.4261,4745.57318327,4736.28220068,0.0,1
1.21160812086,1.00199460465e-05,0.823102514112,11187049.0514,2.82724743632e-05,0.0,12479798.3152,688.620949405,657.781261344,65149979.4475,1895.45660082,56885050.9203,66316816.3,5029.38530969,5017.44607017,0.0,0
1.09833404717,1.02235168614e-05,0.733997006192,-22610640.1643,2.06555657283e-05,0.0,5699335.56616,681.583320381,650.714014972,66651616.2632,1758.40212537,37188698.6276,68521902.9329,4559.1846298,4550.41457562,0.0,1
1.0973210979,9.74009627338e-06,1.19203018907,-24064241.1378,1.42996274682e-05,0.0,5754069.51815,681.60517379,650.603876915,66816519.5621,1756.52338351,36873684.8876,69252078.1901,4554.97987738,4546.1277575,0.0,1
1.06195761487,9.89005127779e-06,0.97834769925,-38473877.9246,1.45923940855e-05,0.0,5822716.06016,679.500805827,648.269274567,66990509.6859,1709.99618311,34742534.0754,70007150.4034,4408.18605933,4399.79319661,0.0,1
1.13469701061,9.8667999938e-06,1.12166575963,-12072645.3439,1.80905117185e-05,0.0,5557672.39145,683.870841157,652.971595236,66241579.0329,1802.09583771,43157838.1223,67536052.9889,4710.12729104,4699.63412101,0.0,1
1.10910283433,9.85797092179e-06,0.695294944469,-17999187.0277,2.15265697907e-05,0.0,5646698.76646,682.488911356,651.366707314,66491368.0547,1770.90542716,39649786.8014,68853866.7134,4603.8858653,4594.36154653,0.0,1
0.987645591975,1.05363033921e-05,1.17164190599,-94986698.9247,1.1956743411e-05,0.0,5929772.71808,678.642500088,643.532041238,67195629.3721,1608.80168302,69900672.4999,70145108.4623,4099.71685229,4091.68799142,0.0,2
1.05950955228,9.52490548252e-06,0.890532746096,-43488727.632,1.56058628129e-05,0.0,5795875.76909,679.875959797,648.16856866,66903632.6021,1705.06594487,35468847.056,70329254.9014,4398.02415151,4388.99167646,0.0,1
1.11694326804,9.8208674634e-06,0.990998214001,-17631452.2705,1.82893611461e-05,0.0,5678671.08774,682.770710414,651.832115662,66605232.3633,1782.19283264,39964575.5885,69262278.3924,4636.43150563,4627.26401408,0.0,1
0.988457627582,9.71732366761e-06,0.883019459275,-95202295.5142,1.48026032866e-05,0.0,5992847.25369,680.987184407,643.604214059,67385046.8173,1619.38804306,70090209.8764,70332406.8534,4103.08761209,4095.99492168,0.0,2
1.16914774282,9.72801566747e-06,0.868107715215,-955713.114631,2.49672882054e-05,0.0,5492753.81423,686.15139516,655.214001686,66064811.4984,1848.40617208,49478894.0669,67880924.1132,4853.13228045,4843.18981978,0.0,0
1.08229333652,9.85441649605e-06,0.885813688687,-29232211.9848,1.68633291124e-05,0.0,5773138.89674,680.827056579,649.676224106,66861450.0815,1737.29392963,35749724.8183,69343553.5103,4492.59963989,4484.08127781,0.0,1
1.08342285141,1.03623739839e-05,0.695682995376,-27314355.6674,2.00296901792e-05,0.0,5740358.01923,680.611664747,649.746557357,66762162.9891,1739.26045703,35833437.8254,69122169.2219,4497.2882562,4488.84942611,0.0,1
1.12411477843,1.02163247087e-05,1.1895820014,-13303696.6166,1.6351150482e-05,0.0,5620877.71104,682.861804538,652.273170211,66412758.317,1789.53078813,42389665.1589,67691132.997,4666.20044526,4656.42435729,0.0,1
1.13334225562,9.88170326063e-06,0.911804812046,-11200430.3583,2.08170540355e-05,0.0,5599195.14566,683.798444798,652.900073515,66369200.0218,1802.40797413,43688771.8727,67592178.0381,4704.50370308,4694.85053074,0.0,1
1.07390441296,9.90627740015e-06,0.999065892003,-32531903.6144,1.50892016608e-05,0.0,5804451.81782,680.06176175,648.990650307,66955612.9232,1726.19392168,35010620.2263,69781397.5234,4457.7772182,4449.38889693,0.0,1
1.00806323201,1.00923121732e-05,1.07368921312,-87017065.8332,1.29235336134e-05,0.0,5889434.57712,677.773534579,644.833191411,67094891.7216,1635.59454084,63012358.9931,70757803.0002,4184.47047607,4176.03070255,0.0,2
1.2209346924,1.01604217739e-05,1.2363637366,13066339.3936,2.13749747649e-05,0.0,14254771.6621,688.861375946,658.411900508,65181670.9438,1905.52444172,58465499.3467,66524754.2405,5068.09990815,5056.0075306,0.0,0
1.09448173849,1.03381687983e-05,1.16485485903,-23804426.7867,1.49619236839e-05,0.0,5742955.51884,681.056631157,650.440501037,66787362.3806,1753.34555145,36808068.8339,68947992.9004,4543.19369647,4534.58364806,0.0,1
0.977523857714,9.94495252487e-06,1.02164815921,-94861987.1208,1.33788945741e-05,0.0,6030118.53351,681.628265035,642.904124549,67483813.1219,1613.82529441,69790629.1574,70028124.5678,4057.70153337,4051.02109013,0.0,2
1.20453639392,9.82773027304e-06,0.964324816753,9567940.64392,2.43441338749e-05,0.0,10947767.9644,688.142064739,657.388901612,65504949.7275,1888.36043444,55788807.359,66946685.1451,5000.03057116,4988.7693854,0.0,0
1.07251505692,1.00265801763e-05,0.729271561463,-32281916.5552,1.82434645224e-05,0.0,5774285.35789,680.011348942,648.89551756,66853323.3064,1723.90067587,35082424.7711,69589927.8969,4452.01000127,4443.45357125,0.0,1
1.10226653687,9.98445631761e-06,0.950617774869,-21776037.8848,1.75766766725e-05,0.0,5720299.71836,681.873311255,650.969814581,66715997.7297,1763.5206731,37640269.3623,68542719.8655,4575.50839455,4566.67691343,0.0,1
1.07741656575,1.03445645161e-05,1.02837792739,-29696527.1063,1.53267546543e-05,0.0,5779820.78296,680.135910561,649.360761497,66886983.8879,1731.13413752,35406344.3706,69226928.5458,4472.35616443,4464.00899288,0.0,1
1.06303971653,1.0280740076e-05,0.920741070889,-36763747.6645,1.55239571616e-05,0.0,5804864.13618,679.289462531,648.339975134,66937855.3225,1711.81297632,34615594.9904,70048011.0411,4412.67786332,4404.36145024,0.0,1
0.974599978934,1.02154623603e-05,1.17977222472,-94685779.854,1.20782591471e-05,0.0,6035289.05732,681.396563932,642.715321404,67505194.5358,1611.61422162,69635644.6072,69869799.1214,4045.56451255,4039.00584171,0.0,2
1.10773631359,9.91548856005e-06,0.745466875909,-18221747.8128,2.06620420611e-05,0.0,5627656.08638,682.365665369,651.270438541,66428082.0424,1767.89328844,39572592.7101,68818783.822,4598.21343771,4588.32578372,0.0,1
1.24046022173,1.00745647008e-05,0.940055998857,17796079.4313,2.86632346116e-05,0.0,19338550.5066,690.307763011,659.638122004,64917088.1812,1929.42809709,62335032.5731,67042544.9603,5149.1503804,5137.14273536,0.0,0
1.11626048564,9.4534947578e-06,0.734646101995,-16637104.7087,2.11215286665e-05,0.0,5640826.41526,683.140234994,651.799957736,66485093.1443,1779.94768503,40430885.719,69268624.2346,4633.59727589,4623.85475613,0.0,1
1.11513371735,9.83115745183e-06,0.617950001556,-16195272.5169,2.388565975e-05,0.0,5645194.68875,682.832205222,651.713911269,66503384.0198,1779.72243435,40681296.1014,69233392.3173,4628.92006072,4619.69201346,0.0,1
1.08928841502,1.03136440537e-05,1.1678917682,-25601745.4913,1.4542968274e-05,0.0,5758488.43989,680.737933231,650.077798494,66825743.5213,1746.57614788,36317338.6085,69181746.1037,4521.63621075,4513.10599046,0.0,1
1.11764930392,1.03736986461e-05,0.919264401238,-14777084.4419,1.95289508168e-05,0.0,5617757.47542,682.468758737,651.850108366,66401301.7935,1781.72813552,41283529.7986,68654374.3639,4639.36226057,4629.7932814,0.0,1
1.03348159539,9.77992469952e-06,0.985070380565,-59243714.3618,1.37171758355e-05,0.0,5847089.76945,678.329190553,646.447121711,67018080.0577,1669.63074621,42291064.3816,71059243.1062,4289.98210246,4281.17670981,0.0,2
1.0892641279,1.03732985434e-05,1.03366489454,-25396457.7388,1.61402081675e-05,0.0,5746754.94241,680.744980931,650.071097504,66791990.0392,1746.63034012,36321802.1992,69109846.7731,4521.53539491,4513.00630379,0.0,1
1.09718144286,1.04872113874e-05,0.787343513397,-20827223.8751,1.96551057902e-05,0.0,5632063.97657,681.362702192,650.616819588,66415935.5101,1753.98597665,38114044.434,68190646.5184,4554.40016931,4544.60056378,0.0,1
1.03852417439,9.77951509286e-06,0.78907755397,-55690497.9274,1.58451647628e-05,0.0,5887549.11964,678.533831178,646.783633786,67166620.9928,1680.13082478,40297981.616,71132547.5383,4310.91384789,4303.45791769,0.0,2
1.01862663778,9.9558879158e-06,0.787136196254,-73913689.4342,1.51554404973e-05,0.0,5931715.34729,677.830058844,645.532087652,67263996.3727,1653.60964105,52386754.5816,70850071.3504,4228.31917342,4221.14672702,0.0,2
1.14921734933,1.00179091737e-05,0.884944059271,-7346922.65128,2.33630146833e-05,0.0,5568962.71421,684.642489274,653.903765088,66302942.5447,1824.13638037,45841281.453,68621223.3509,4770.40121707,4761.01460037,0.0,1
1.0439379725,1.003699491e-05,1.06921814874,-49577304.8421,1.34270472526e-05,0.0,5834910.43602,678.537978641,647.111631668,67008477.7726,1684.80430567,37282943.7156,71028274.4927,4333.38652385,4324.78906594,0.0,2
1.07313436029,1.00691750087e-05,1.01289361002,-31880390.4979,1.49490313923e-05,0.0,5790164.26426,679.882836644,648.923883593,66904665.5952,1724.49272203,35139899.9969,69584321.0504,4454.58072956,4446.01456096,0.0,1
1.04085577187,1.00880175735e-05,0.894406502737,-51797148.4591,1.49746572187e-05,0.0,5829134.69597,678.426526073,646.913275474,66985138.5869,1680.85073129,38304171.1857,70803012.1769,4320.59230903,4312.04461749,0.0,2
1.00785245845,9.96229781069e-06,0.895563653407,-88426316.8348,1.46318768719e-05,0.0,5883230.59772,678.068526899,644.828106665,67073708.7352,1635.406889,64214688.9165,70807593.7055,4183.59555503,4175.15923207,0.0,2
1.18628543282,9.8129959464e-06,0.975037652381,5381026.20888,2.25772691974e-05,0.0,7021488.6342,687.008432295,656.222533708,65692494.0755,1865.71598481,53224499.5092,67020328.8183,4924.27083164,4913.15427366,0.0,0
1.0219274565,1.04340996799e-05,0.915932390168,-66922541.2616,1.44150665539e-05,0.0,5855117.41473,677.462700287,645.721115554,67041457.2696,1655.48441931,47220919.3551,70739413.7228,4242.02087193,4233.77521326,0.0,2
0.999648692323,9.74597936301e-06,0.825566816848,-95877650.34,1.48594313634e-05,0.0,5984506.95434,678.815028956,644.327578101,67378944.2913,1627.82355583,70685175.9939,70919045.8414,4149.54172183,4142.63665539,0.0,2
1.20171173564,9.78920510021e-06,0.807775059509,9188424.32296,2.73848986805e-05,0.0,10634757.9014,688.126033286,657.226839283,65472523.5803,1885.13586124,55503589.7607,66819952.5862,4988.30541464,4977.09707183,0.0,0
0.998309331598,1.00874255078e-05,1.09785081695,-95521894.2617,1.2615989501e-05,0.0,5915061.07661,678.395779574,644.216021773,67158662.414,1622.5792328,70372043.1267,70785519.3664,4143.98203546,4135.70114603,0.0,2
1.20223364911,9.78678214811e-06,1.0917916045,8197368.57741,2.16558242935e-05,0.0,9650262.63895,687.9885646,657.259009429,65536154.6396,1885.1517693,54848153.0277,66795618.7063,4990.47187746,4979.03251559,0.0,0
1.16164726424,9.43902341514e-06,0.910528093512,-3429108.93336,2.31079733698e-05,0.0,5541086.12536,685.82140024,654.75876752,66236602.5386,1839.03849582,48462819.5073,68633616.5636,4821.99779386,4812.18141418,0.0,1
1.01405798711,9.63460006472e-06,0.881956883586,-82443452.1581,1.43748489944e-05,0.0,5960537.77391,678.139601884,645.245555937,67322934.5717,1647.33573593,59192048.181,70982516.6892,4209.35470449,4202.24701127,0.0,2
1.01950284047,9.973170109e-06,0.924832684606,-72716886.2841,1.40378058963e-05,0.0,5934955.04136,677.768295631,645.589776563,67278776.7858,1654.71786779,51478410.1277,70933499.2323,4231.95629079,4224.771397,0.0,2
1.17501745193,1.01218234491e-05,1.09872219241,2495728.04975,2.00749330789e-05,0.0,5421232.15558,686.083106643,655.531575338,65806245.7327,1851.92246611,51239794.9736,67052037.3591,4877.49744296,4866.56620788,0.0,0
1.23251671768,1.02737970998e-05,0.845209083237,16083120.4586,3.03472548646e-05,0.0,17647367.7345,689.727508899,659.14587708,65034765.3373,1921.02916718,60986846.6789,66704875.1879,5116.17689509,5104.55133942,0.0,0
1.03009528747,9.59066547476e-06,0.98785374591,-63418882.6783,1.37486137257e-05,0.0,5925856.97075,678.351011526,646.248546737,67270172.5695,1668.72892313,44928239.3879,71062648.2566,4275.92553829,4268.58944069,0.0,2
1.11159328189,9.75615610037e-06,1.21128235152,-19444535.3281,1.50349218364e-05,0.0,5715093.46097,682.446210868,651.535300745,66721544.7743,1775.10887167,38930938.9528,69023882.4791,4614.22371313,4605.14317132,0.0,1
0.980238727281,1.0267889905e-05,0.980086201852,-94694218.3768,1.37169700656e-05,0.0,5947484.27641,680.542639461,643.059613738,67229173.4821,1608.85918517,69643033.2344,69880971.1029,4068.97095694,4061.06257626,0.0,2
1.14366736531,1.03714430716e-05,0.83656214739,-7039718.34895,2.40204383571e-05,0.0,5560022.74803,684.058724893,653.527777601,66246316.9249,1816.41227193,46026022.8129,68461151.7695,4747.3632334,4737.98710009,0.0,1
1.09456544495,1.04572459663e-05,0.911484325252,-21408426.0984,1.77844760186e-05,0.0,5652997.07127,681.138477879,650.447429831,66491249.6047,1750.2116963,37949987.5782,68135258.8713,4543.54116199,4533.78653139,0.0,1
0.982580349382,9.8173644816e-06,0.888707038053,-94972352.5227,1.44096085067e-05,0.0,6003012.8874,681.352667965,643.2254405,67402155.6898,1615.66030067,69887752.7144,70127684.9313,4078.69103028,4071.60034191,0.0,2
1.13444100526,9.8715540978e-06,0.89057586035,-12035966.6432,2.15316398954e-05,0.0,5534005.64445,683.996920548,652.954929951,66168020.5411,1802.05720282,43131030.4727,67453872.0812,4709.06461283,4698.57734107,0.0,1
1.13831621609,1.03185791346e-05,0.955224806397,-9892171.06678,2.15718365506e-05,0.0,5598023.18859,683.737553996,653.204365993,66382635.5312,1810.12189769,44298476.7747,67994883.8804,4725.15061299,4715.96304967,0.0,1
1.13697213794,1.03472558909e-05,1.03467285617,-9802407.35635,1.96661724916e-05,0.0,5557918.25546,683.550196237,653.023029403,66242763.9656,1806.05308399,44332092.3475,67953620.938,4719.57134459,4709.57663265,0.0,1
1.15682522513,1.00067408171e-05,0.748354284329,-4961493.47424,2.70144061266e-05,0.0,5525786.33077,685.303462775,654.454116178,66176244.8915,1833.85759566,47138784.5215,68464302.9548,4801.98150951,4792.47070293,0.0,1
1.11655722978,1.02134180534e-05,0.957232679889,-15542541.1122,1.86500273432e-05,0.0,5583823.36072,682.512171463,651.749613213,66303314.5984,1778.12011759,40894974.1269,68837519.7651,4634.82906082,4624.51689476,0.0,1
1.10361415145,1.00893372783e-05,0.836550530062,-21457692.2387,1.94710300467e-05,0.0,5697738.53377,681.940991116,651.051208936,66654219.8891,1765.18266703,37758507.4904,68600102.3446,4581.10234267,4572.24979853,0.0,1
1.07193097868,9.79827423729e-06,1.04139638541,-33755422.9532,1.44116178726e-05,0.0,5816651.98595,680.056850234,648.906790846,66987407.9951,1723.58276662,34837933.6048,70009752.7155,4449.5854925,4441.2276429,0.0,1
1.0584185282,1.00554874485e-05,1.12691495304,-39505351.355,1.29899081228e-05,0.0,5833976.16349,679.123470097,648.036129325,67021468.7533,1705.20810697,34806583.6483,69801315.9089,4393.49531056,4385.15757648,0.0,1
1.16032138436,1.05992957201e-05,0.938855569992,-1175064.09747,2.22540274598e-05,0.0,5434280.71702,685.032858303,654.62767398,65796558.0499,1834.05844259,48745062.1484,67400984.9974,4816.49406648,4805.83268941,0.0,0
1.03668687502,9.99273727076e-06,1.1198016791,-55489287.7722,1.27129652041e-05,0.0,5900733.97993,678.16821266,646.668480333,67207048.4323,1677.53514826,39981077.7386,71082413.2439,4303.28721821,4295.85635227,0.0,2
1.01680168926,1.03111255774e-05,0.566246845171,-74208330.4097,1.79027631085e-05,0.0,5902367.26977,677.544332199,645.409161702,67175951.1534,1651.21045483,52591728.9856,70640946.4178,4220.74381212,4213.59754072,0.0,2
1.17943379199,1.03868142531e-05,0.909271706267,3778042.14953,2.41160164229e-05,0.0,5702128.45776,686.315896363,655.779304869,65623116.2146,1857.48954234,51743345.4157,66886634.8193,4895.82967055,4884.81836689,0.0,0
1.0378482903,1.02219971967e-05,0.812587023962,-53082345.9323,1.53848007951e-05,0.0,5833591.25022,678.197558487,646.717533667,66996199.7486,1677.24870871,38856868.1456,70926627.9986,4308.10825304,4299.69658951,0.0,2
1.15155829405,9.82121638388e-06,1.0410212774,-6648443.65186,2.02817352483e-05,0.0,5543050.54046,684.884934737,654.053157052,66216417.9188,1825.17144481,46185845.6274,68787344.1066,4780.1184786,4770.05594618,0.0,1
1.14156369466,9.47810645083e-06,0.850217660219,-9698193.14608,2.20080317152e-05,0.0,5586313.99184,684.592313977,653.434433602,66352165.9213,1813.23397318,44693915.9359,68043105.9208,4738.63089653,4728.85536912,0.0,1
1.1960617721,1.02673182018e-05,0.978377282482,7871725.71422,2.38157360394e-05,0.0,9299900.12089,687.398359679,656.866459653,65478566.2727,1877.27032425,54331908.8985,66556445.9791,4964.85241599,4953.56091994,0.0,0
1.1596827274,9.87702432586e-06,1.16357111145,-3156055.79503,1.78753801414e-05,0.0,5484508.98735,685.333976505,654.600586829,66019529.7761,1833.00141775,48097928.6491,68133969.9739,4813.84300144,4802.97488748,0.0,1
1.18819312371,1.03700267783e-05,1.09761710594,6069445.45695,2.12598142049e-05,0.0,7556904.02844,686.796266142,656.360741969,65498519.0947,1866.73599997,53034842.2794,66628689.6793,4932.18965652,4920.70647473,0.0,0
1.04773615222,9.69837972675e-06,1.00275829152,-48864533.3332,1.40117262612e-05,0.0,5829157.22868,679.025890506,647.364798078,66991004.4743,1689.37879879,37158721.5334,70854856.5781,4349.15276787,4340.3165729,0.0,2
0.992761983814,9.66690812562e-06,1.02649436815,-95414962.9694,1.36440141017e-05,0.0,5991327.7077,680.457429726,643.880837272,67387411.098,1620.75681154,70277459.1885,70522256.1419,4120.95499481,4113.80275487,0.0,2
1.13886963737,9.97605457955e-06,1.12778094195,-8947986.62961,1.81522884842e-05,0.0,5594433.09815,683.921410481,653.240655532,66366254.417,1808.93840372,45225221.8275,68176952.0373,4727.44786472,4717.70768445,0.0,1
1.19402618611,9.9684104934e-06,1.04899130878,6266618.57177,2.21855734662e-05,0.0,7864598.70034,687.470260741,656.742373961,65481880.248,1874.2300003,53409444.5419,66650577.7957,4956.40269854,4944.69520304,0.0,0
1.09121333735,9.96439252624e-06,1.00901972345,-25792900.9916,1.62139382151e-05,0.0,5752373.03487,681.164111663,650.20734742,66813264.4939,1748.87068651,36310116.7565,69271672.1641,4529.62656334,4520.96902923,0.0,1
0.984483531179,9.77622722823e-06,0.967601844011,-95074627.2672,1.38349555561e-05,0.0,6003533.37762,681.149882851,643.348059328,67406946.2101,1616.35764672,69977748.4151,70218876.2254,4086.59113792,4079.47264738,0.0,2
1.1060536428,9.93204264501e-06,0.992233515342,-20906086.8322,1.75441818716e-05,0.0,5712148.89127,682.115650183,651.203921549,66698439.7047,1768.39546056,38031134.0507,68739297.0025,4591.22867126,4582.33744219,0.0,1
1.2777736039,9.89584117213e-06,0.948159984837,24393096.0815,3.16153457265e-05,0.0,26118350.4056,692.758094923,661.957936041,64327137.2972,1971.25778567,67170904.1326,68114984.7243,5304.03822979,5291.14523123,0.0,0
1.03245212522,1.00649091299e-05,1.02661962713,-58195532.8564,1.34568694813e-05,0.0,5903066.89847,677.973904809,646.399632144,67210424.9466,1671.94834558,41695562.8738,70990958.1145,4285.70877179,4278.33884893,0.0,2
1.17891636463,9.61940873764e-06,0.79577598639,2550950.1015,2.53381753454e-05,0.0,5378644.60921,686.870549267,655.776929642,65696074.3974,1857.22571059,51400235.7998,66921927.9833,4893.68182958,4882.48169984,0.0,0
1.10052155729,1.01530325683e-05,0.706838889436,-22146377.4975,2.1275516732e-05,0.0,5693087.25308,681.784605815,650.856658501,66635089.0767,1761.28405781,37416678.8861,68405099.9,4568.26498431,4559.46123891,0.0,1
1.07342491557,1.0416373938e-05,1.10509174206,-30752126.228,1.42482489937e-05,0.0,5781459.36875,679.80464581,649.081488339,66875786.1509,1725.1279205,35228843.6352,69235390.7581,4455.78682453,4447.30937006,0.0,1
1.10777223233,9.8832248598e-06,1.05583239921,-20756044.7968,1.69787887454e-05,0.0,5725272.43402,682.215295957,651.314820654,66751282.1166,1771.23693455,38166425.1467,68832904.9136,4598.3625364,4589.64416927,0.0,1
0.974543125122,9.62139751169e-06,0.944244928699,-94663252.3355,1.41808401385e-05,0.0,6034111.25075,683.229913113,642.711070865,67485460.9781,1617.33977726,69615557.9614,69850169.9922,4045.32851238,4038.43527613,0.0,2
1.13687694378,1.04250201136e-05,1.03091235342,-10069102.199,2.03396381085e-05,0.0,5604207.81019,683.551049302,653.116473413,66401973.2551,1808.16779338,44144236.8076,67967164.9715,4719.17619363,4710.0114709,0.0,1
1.2936373518,1.01438910033e-05,1.08280284916,27095803.1721,3.11704386571e-05,0.0,28545567.9991,693.570971275,662.910744201,63984339.8834,1987.60974081,68378768.8495,69509861.7552,5369.88864732,5356.38920406,0.0,0
1.04421358786,1.02582452373e-05,1.10527989284,-48167989.3301,1.30493901717e-05,0.0,5826421.43689,678.361163958,647.134902975,66982686.5143,1684.96819954,36808969.8553,70647483.0961,4334.53060321,4325.84027889,0.0,2
0.906720062371,9.91190369269e-06,0.923429572045,-91448008.5557,1.36568341663e-05,0.0,6126758.62064,692.049768278,638.326367719,67668748.1995,1597.48729955,66785496.9878,67668748.1995,3763.7949789,3757.04641799,0.0,2
1.18226877927,9.83894155213e-06,1.12502584369,3749053.61663,1.98090818834e-05,0.0,5698171.67255,686.684392823,655.971174121,65741219.3105,1860.39940141,52066262.6826,67055611.857,4907.59770275,4896.3385163,0.0,0
1.05268212136,9.26021026169e-06,1.07867185202,-48094501.0726,1.32553609397e-05,0.0,5839633.69731,679.563809109,647.676900618,67029300.8659,1695.78293986,36885398.27,70683933.2881,4369.68348577,4360.76424114,0.0,2
1.04487611404,1.01445541452e-05,0.989508875227,-48579136.3244,1.42737663245e-05,0.0,5823370.7152,678.53901195,647.181638276,66975841.9339,1686.12509472,37023874.4201,70845543.585,4337.28074938,4328.66795429,0.0,2
1.07043579814,1.03491489e-05,1.1420566186,-32429937.5202,1.36664636847e-05,0.0,5798180.56172,679.488221955,648.758019915,66933346.8056,1721.17900852,34978247.7576,69535681.6392,4443.37899808,4434.94809741,0.0,1
1.227905046,9.82449306668e-06,1.27033749213,14429754.3432,2.07371305499e-05,0.0,15851241.6941,689.426173983,658.874584874,65265494.227,1914.81921184,59665981.9791,66808502.5308,5097.03384595,5085.19955233,0.0,0
1.07893447192,9.84856457041e-06,0.948993901466,-30562935.4314,1.59123390155e-05,0.0,5790618.35056,680.411258709,649.317110177,66921931.6221,1732.84304197,35408494.2115,69365236.4768,4478.65699294,4470.19079686,0.0,1
1.15644488712,1.05749170035e-05,0.935398342772,-1887064.33831,2.19697902276e-05,0.0,5434316.45678,684.820860154,654.378001734,65823681.6073,1828.53733401,48439663.2484,67595040.8613,4800.40272644,4789.59036411,0.0,1
1.1379357944,9.7952851464e-06,0.846095914793,-9920104.5287,2.26164957723e-05,0.0,5615237.43489,684.109886601,653.209344454,66441006.1915,1809.64639418,44696053.8431,67994555.0837,4723.57148255,4714.36619974,0.0,1
1.06571968919,9.58381431676e-06,1.03101263298,-36620926.8632,1.36947285128e-05,0.0,5796844.49443,680.049436196,648.58072415,66900562.4539,1713.12327625,34626893.1165,70195847.4155,4423.80242983,4414.63554168,0.0,1
1.06800491552,1.00100696699e-05,1.10789267987,-35248420.126,1.3583053715e-05,0.0,5811558.39938,679.686968586,648.66160881,66959007.0115,1717.87457541,34708292.1906,70059491.298,4433.28840432,4424.80099856,0.0,1
1.1649729695,9.61655604341e-06,0.974421548657,-852097.149196,2.09018583818e-05,0.0,5448835.32647,685.905056611,654.924708543,65905341.3896,1839.30923597,49710106.8038,67957289.8231,4835.80279639,4824.73932313,0.0,1
0.981980529266,9.6489819745e-06,0.966091492166,-94964891.0717,1.40941040388e-05,0.0,6015547.9161,682.084547031,643.188926364,67442227.7932,1618.6873044,69881141.3444,70119806.9429,4076.20117698,4069.20163113,0.0,2
1.11513000096,1.0043604182e-05,0.983955902936,-16008486.4193,1.83266626646e-05,0.0,5668760.00041,682.463126944,651.694351827,66566433.5236,1779.18173636,40778051.0651,69373679.1027,4628.90463399,4619.67675422,0.0,1
1.2660880469,9.83052934648e-06,0.847192973671,22519297.2278,3.38961532277e-05,0.0,24393546.8173,692.272396015,661.229930012,64346684.7349,1957.97348379,65817781.6666,66743787.6312,5255.53148268,5242.46956527,0.0,0
1.11332338874,1.02016471056e-05,1.02990733551,-16288356.5577,1.76364143237e-05,0.0,5618915.80723,682.28147949,651.562530595,66403989.783,1774.57912562,40640752.9953,69272929.4894,4621.40538666,4611.4214407,0.0,1
1.09723949939,9.81130754409e-06,0.94978118932,-23977032.3181,1.71834165311e-05,0.0,5740403.57754,681.654635642,650.602969062,66780735.4351,1756.94229657,36839110.9574,69182470.2693,4554.64116197,4545.88897342,0.0,1
1.19107080375,9.98586161549e-06,0.980821739579,5710703.92719,2.32130949093e-05,0.0,7267532.39246,687.293315526,656.526913334,65501330.9694,1870.80226235,52990202.474,66723260.291,4944.13490637,4932.50200577,0.0,0
1.12192674265,1.01589983181e-05,0.90362744152,-14176082.485,2.05302595305e-05,0.0,5655703.10553,682.833850615,652.148932182,66549472.9641,1789.03814599,41840288.4418,68601757.6281,4657.11790874,4648.19080054,0.0,1
1.11641017308,1.00956776874e-05,1.23315185685,-15492849.524,1.52604204987e-05,0.0,5632995.27425,682.433301366,651.752207213,66448805.6608,1778.51961123,41056376.6073,69189457.2956,4634.21862846,4624.18024288,0.0,1
1.0532775912,1.03447611529e-05,0.976024864614,-43138399.8995,1.46055807513e-05,0.0,5801669.35178,678.767174235,647.696997735,66917044.3514,1697.65327486,35323204.9494,70348246.9277,4372.15528107,4363.49574552,0.0,1
1.11565522581,9.75862090404e-06,1.05093061993,-16357755.0424,1.69811618008e-05,0.0,5644185.25009,682.718618005,651.734767224,66492836.8593,1778.12266856,40647692.1711,69353940.7785,4631.08484234,4621.15740011,0.0,1
1.01306618649,9.66997329418e-06,1.25554889818,-83473435.5697,1.13061547098e-05,0.0,5979363.40567,677.981113105,645.18274078,67380071.8997,1645.81302731,60051584.5418,71253481.7554,4205.23774012,4198.14407091,0.0,2
1.01821687156,9.93828590002e-06,1.20263900754,-74640649.361,1.16939995684e-05,0.0,5952850.06973,677.713210224,645.506672951,67327124.6393,1652.84571885,52950302.8289,71856610.0502,4226.61823385,4219.45160544,0.0,2
1.12607754764,9.65306963339e-06,0.732003257592,-13422162.0888,2.26235524143e-05,0.0,5621191.2773,683.554104494,652.40016903,66436816.6943,1793.37377477,42257324.2747,68460237.3718,4674.34790025,4664.81632486,0.0,1
1.01448775577,1.00226619414e-05,1.01783795869,-78396842.1765,1.32740784813e-05,0.0,5944013.14938,677.655379321,645.272858533,67276737.882,1647.57965702,55902293.5101,70927236.4598,4211.1386742,4203.93659782,0.0,2
1.11123414359,1.0222640209e-05,0.957063586906,-17044024.7852,1.86262619977e-05,0.0,5603691.63505,682.218139884,651.442894889,66345759.7592,1771.42585148,40161091.7116,69066803.7443,4612.73293004,4602.59298463,0.0,1
1.08158159662,9.93078923231e-06,0.997493893561,-29235576.518,1.56261823056e-05,0.0,5779170.42033,680.688180902,649.63176192,66880493.8331,1736.27893937,35645525.7385,69344507.5167,4489.64520757,4481.13791039,0.0,1
0.958200974527,9.68798360559e-06,0.796476990153,-93924560.0993,1.50918367318e-05,0.0,6050492.9433,685.48265244,641.65479873,67502344.6073,1612.70075205,68965255.9124,69190356.804,3977.49224526,3970.59348531,0.0,2
1.07856721414,1.0003002951e-05,0.914844063695,-30125948.1732,1.63662265668e-05,0.0,5778850.482,680.480562371,649.423190453,66875928.8124,1732.38649714,35455259.8016,69313316.3546,4477.1325059,4468.67200566,0.0,1
1.13877629245,9.83771652932e-06,0.960483185577,-8939274.32912,2.04658982755e-05,0.0,5557985.3253,684.140519619,653.236955967,66244652.0959,1807.9653655,45241834.1667,68070417.6209,4727.06038996,4716.91181205,0.0,1
1.14294595692,9.73047036723e-06,0.664257493599,-7991977.31893,2.59460358469e-05,0.0,5525161.04585,684.491846983,653.381847065,66152749.0617,1814.0200617,45831898.2176,68267161.2396,4744.36866717,4734.25177363,0.0,1
1.16351788511,1.00015788447e-05,0.849775716971,-654791.614458,2.34214972735e-05,0.0,5426077.21921,685.667203809,654.828673709,65830673.5823,1837.75798448,49535811.0799,67688709.4534,4829.76274109,4818.82640712,0.0,0
1.15596863314,9.88541677761e-06,0.935063077003,-5474908.09272,2.28185625159e-05,0.0,5550553.4729,685.149470682,654.35419143,66242997.695,1832.44213831,46948905.1337,68602948.009,4798.42579616,4788.83436944,0.0,1
1.1219859025,1.01990435249e-05,1.07486028709,-13614378.2288,1.7624814152e-05,0.0,5618245.28638,682.777571521,652.132822966,66419179.5675,1786.73566071,42174262.7626,68059422.8664,4657.36348128,4647.62369596,0.0,1
1.07228130296,1.02640270647e-05,1.12848251219,-31939139.6472,1.38548098961e-05,0.0,5796264.73484,679.648670136,648.86827117,66929575.644,1723.6261636,35096567.9709,69492802.1749,4451.03968859,4442.58081457,0.0,1
1.17186566467,1.05183976401e-05,0.713894803455,2508024.76389,2.79772614857e-05,0.0,5325399.26795,685.989110067,655.309598808,65466669.6056,1847.33733177,50940900.0465,66779866.9923,4864.41437405,4853.13600008,0.0,0
1.08829968393,9.79015869565e-06,1.07038608379,-27313439.7001,1.51137908632e-05,0.0,5772222.30402,681.136179061,650.061264894,66866364.5887,1745.00928644,36051776.2569,69402481.1729,4517.53198799,4508.91390685,0.0,1
1.19572065341,9.97137841444e-06,1.00645864146,7333102.91013,2.29019349908e-05,0.0,8766797.42061,687.551684324,656.866869506,65554225.051,1877.11133061,54101008.2164,66625983.8472,4963.4364323,4952.13072447,0.0,0
1.09550768689,1.01467388133e-05,1.12895356702,-23845393.6832,1.51614340299e-05,0.0,5741082.56589,681.254983334,650.501276297,66773741.4667,1754.35621593,36834760.6042,69021591.9327,4547.45240828,4538.72754386,0.0,1
1.09627419384,1.04812251534e-05,1.16578087186,-22322665.5826,1.49629898154e-05,0.0,5711186.98279,681.09166111,650.572913891,66671560.3785,1754.39174722,37376467.4081,68380398.2074,4550.63417863,4541.6023173,0.0,1
1.17769121318,1.00851962035e-05,1.08195822415,1842944.32867,2.1901507942e-05,0.0,5450705.05439,686.310897037,655.712787125,65918259.0968,1857.71379859,50881844.8982,66998311.4575,4888.59622591,4878.29238376,0.0,0
1.13330541044,1.00572516606e-05,0.772027511671,-10604677.1253,2.35880414307e-05,0.0,5604685.77005,683.706513292,652.910449134,66401625.3911,1803.3889894,44152817.732,67746452.7033,4704.35075874,4695.14060901,0.0,1
1.06931195011,1.054810786e-05,0.790148924945,-33022209.8055,1.77454620023e-05,0.0,5780104.03422,679.586948776,648.815220888,66883629.3949,1720.92439546,34752176.7998,69441382.6618,4438.71390491,4430.58559974,0.0,1
1.07905639697,1.04718254306e-05,0.908640879944,-28461423.58,1.69237118759e-05,0.0,5750470.80878,680.207477984,649.47297371,66790425.6356,1732.6718932,35532923.6347,69123230.9381,4479.16310382,4470.59915664,0.0,1
1.2601207364,9.67167343092e-06,0.964156917003,21119407.5095,2.94260803005e-05,0.0,22985354.1932,691.790057794,660.836457709,64588370.5654,1951.46043831,64928385.2767,65761485.6019,5230.7611768,5217.92955917,0.0,0
1.01939960574,1.06722774437e-05,0.873464504532,-67229989.0165,1.45954541105e-05,0.0,5850100.91726,677.169772689,645.553194948,67022361.994,1652.16405773,47427027.7376,70580079.6809,4231.52776343,4223.32224213,0.0,2
1.23786891628,1.01365655909e-05,0.928971548888,17455515.247,2.89621290469e-05,0.0,19039952.5412,690.085820563,659.493287043,65026995.8962,1927.15884658,62106326.5215,66979058.9984,5138.39387148,5126.75927966,0.0,0
1.13686325734,1.06744138019e-05,0.942673389383,-9428549.4086,2.20073619196e-05,0.0,5584656.96682,683.405781238,653.088521227,66307053.5932,1808.11737258,44349363.7926,67983904.7121,4719.11938122,4709.95487558,0.0,1
1.12267071366,1.02735225373e-05,0.94491161304,-13774569.2563,1.95081012338e-05,0.0,5606691.13129,682.840866159,652.180164621,66374749.0294,1788.07387157,41952030.4086,67927933.0921,4660.2061324,4650.55412419,0.0,1
1.08177464193,1.00378101049e-05,0.839229107455,-28804936.4701,1.75351004003e-05,0.0,5763751.04599,680.697218076,649.651922187,66835073.2567,1736.65397278,35682439.577,69274866.2642,4490.44653865,4481.93624092,0.0,1
1.09942465769,1.03594644887e-05,1.06584054396,-20114834.6312,1.6189329918e-05,0.0,5654966.87112,681.40740234,650.762866611,66489204.0675,1756.33462878,38484307.6573,68994216.5762,4563.71175407,4553.87340931,0.0,1
1.14073752611,9.47918919405e-06,0.891811186007,-9996350.17546,2.15609059284e-05,0.0,5526931.34352,684.606462511,653.356331595,66154033.1563,1809.74792334,44500637.8507,67893514.7562,4735.20147088,4724.5277858,0.0,1
1.22043079374,9.87250870432e-06,0.827878053961,12819448.2286,2.86099094912e-05,0.0,14070699.9047,689.290518738,658.386256455,65108230.2299,1906.47424984,58259606.8093,66330184.2984,5066.00822481,5054.06331804,0.0,0
1.13467241817,1.04476155279e-05,0.834480684861,-10556191.0464,2.32824180065e-05,0.0,5594368.04923,683.520816393,652.998634674,66368011.4819,1805.54368122,43881556.6233,67810283.0589,4710.02520782,4700.89542491,0.0,1
1.07719207801,1.01642985565e-05,0.894146525829,-31230219.5326,1.68593651349e-05,0.0,5781227.19312,680.298097176,649.337794059,66895052.734,1731.19574965,35107760.8928,69238400.0059,4471.42431582,4463.17809375,0.0,1
1.08636148339,1.00914453704e-05,0.770277289062,-26972270.0708,1.88783519943e-05,0.0,5743635.81001,680.93897513,649.93243519,66781036.5236,1742.71934346,35955852.2128,69227878.8046,4509.48651755,4500.90479785,0.0,1
1.10577077258,1.04026652312e-05,0.817574209301,-17703552.2584,1.9776169199e-05,0.0,5648432.53481,681.816755059,651.1420625,66494815.7317,1766.2391724,39698484.7646,68821762.1064,4590.05447698,4580.6844113,0.0,1
1.07702029923,9.91389002363e-06,1.1397468048,-30329953.2286,1.33726121852e-05,0.0,5772202.63221,680.207845323,649.179508936,66846100.7801,1728.27674886,35353638.565,69499863.9153,4470.7112621,4461.53942233,0.0,1
1.10645358308,9.87467823554e-06,0.891431841354,-18743893.4619,1.83871007378e-05,0.0,5648699.90862,682.232536773,651.197851455,66489127.1976,1766.06330967,39274394.4096,68788937.0734,4592.88882337,4583.02231073,0.0,1
1.06772514729,9.62104175005e-06,0.923506058043,-35047656.3036,1.50444525778e-05,0.0,5794387.81774,680.041759791,648.631854719,66891223.2389,1716.28332843,34631350.3752,70393703.7805,4432.1270864,4423.10861694,0.0,1
1.08161610309,9.7736930775e-06,0.818304270647,-29676679.9796,1.76017109384e-05,0.0,5773606.37457,680.863712493,649.624189807,66871874.4664,1736.45471919,35620552.1041,69353192.586,4489.78844393,4481.28061043,0.0,1
1.02713282889,1.04541914173e-05,1.15955357193,-61173302.3661,1.2053106186e-05,0.0,5839093.4402,677.464627956,646.039634981,66999678.3643,1660.93079803,43366847.0278,70553972.4766,4263.62837272,4254.78964,0.0,2
1.13339756461,1.02093779002e-05,0.782869763966,-10866884.8451,2.30838670723e-05,0.0,5553135.37466,683.584098748,652.814909492,66219128.211,1801.83818373,43713596.5654,67605573.3549,4704.7332907,4694.79932977,0.0,1
1.25826089275,9.99552182343e-06,0.871213786726,21139961.1784,3.25042231033e-05,0.0,23037993.258,691.620106856,660.721520852,64486839.5494,1949.00416918,64909389.1096,65739848.2039,5223.04096581,5210.2438885,0.0,0
1.22294156848,1.00281805248e-05,1.01006360727,13417844.5682,2.53380120714e-05,0.0,14699629.4134,689.225721032,658.542000132,65084958.8573,1908.4001766,58746239.3663,66472757.7726,5076.43045076,5064.30025991,0.0,0
1.02261510461,1.00052453385e-05,1.03729430536,-68626613.2643,1.31255144744e-05,0.0,5930967.61401,677.749029836,645.784910354,67275091.3187,1658.79795284,48471108.7824,70918890.7209,4244.87529924,4237.64611808,0.0,2
1.13381644663,9.81693701468e-06,0.883645030103,-11172130.4733,2.12141549202e-05,0.0,5598129.7483,683.884286437,652.931375413,66365667.3217,1803.06875466,43672732.4343,67599913.4489,4706.47206996,4696.81103071,0.0,1
1.21492520772,9.82528796844e-06,0.801486646474,11957694.6276,2.86615491121e-05,0.0,13236519.4203,688.910166289,658.018299249,65256623.3864,1900.71570864,57568924.3835,66312012.0418,5043.15453725,5031.61899532,0.0,0
1.15739604425,1.00096331104e-05,1.22657507177,-3557167.9695,1.8458482991e-05,0.0,5554996.75969,685.057082284,654.483268082,66251434.674,1832.98450368,48086612.4311,68530258.7338,4804.35097968,4794.61813193,0.0,1
1.02656063824,1.00915475018e-05,0.746643031375,-63836751.5565,1.57704053451e-05,0.0,5853694.1602,677.953542219,646.010189741,67038061.0535,1661.95686172,45125455.7104,70842666.1751,4261.25320933,4252.93335825,0.0,2
1.10147357127,1.01940972082e-05,0.967212371436,-21858584.34,1.77589368872e-05,0.0,5709557.10577,681.679818512,650.918359818,66688098.4439,1762.27025436,37591104.3589,68533817.0886,4572.21679434,4563.39803862,0.0,1
1.15631479219,9.68306667192e-06,0.845410330903,-2816050.99994,2.23663238183e-05,0.0,5508662.68508,685.177388621,654.268954164,66091127.0547,1830.06441263,48753429.1006,68458965.9589,4799.86270238,4789.47063584,0.0,1
1.12902701482,1.03707373087e-05,1.15511856096,-13141392.1397,1.76921775887e-05,0.0,5544338.75782,683.183129184,652.591608011,66194799.8553,1794.30939432,42369211.702,67202391.3288,4686.59113852,4676.02853554,0.0,1
1.21037735482,1.01672922875e-05,0.917899894101,11061449.4687,2.62405365094e-05,0.0,12317250.7463,688.368264685,657.701767257,65199275.69,1893.67622471,56775730.8087,66307113.1381,5024.27639986,5012.38751073,0.0,0
1.2408403132,9.78941922534e-06,1.02441468706,17353530.8292,2.63359520072e-05,0.0,18905857.3978,690.39335278,659.596669919,64853288.7115,1928.77120693,61928237.2946,66918813.505,5150.72814009,5138.13981151,0.0,0
1.02739011462,9.70371146345e-06,1.01558491229,-65661725.8452,1.34328852811e-05,0.0,5929823.64466,678.16885693,646.086374824,67277685.3549,1665.13235029,46415052.9458,71091013.881,4264.69636579,4257.39901114,0.0,2
1.09012728747,9.90946349466e-06,0.732175824214,-26263406.0663,1.96340579179e-05,0.0,5737343.22557,681.287371201,650.155276551,66764672.3809,1747.69351837,36187645.9447,69258287.5636,4525.11837029,4516.47783035,0.0,1
1.03692898873,1.05763441143e-05,1.01617511239,-51421825.8623,1.39387622792e-05,0.0,5816721.90285,677.783195613,646.649875875,66950799.7501,1674.98395129,38128548.2093,70595859.2187,4304.29223222,4295.63237126,0.0,2
1.23282575887,9.88989016099e-06,1.02926101267,15944499.2874,2.564894195e-05,0.0,17389059.8951,689.830321525,659.198607588,65171048.4692,1921.35522381,60905803.8746,66864821.3003,5117.45972507,5105.82080864,0.0,0
1.07044652394,1.0048166465e-05,0.985914577068,-33978269.4806,1.50337876713e-05,0.0,5795961.20959,679.827766273,648.803084269,66916302.1996,1721.16756661,34802675.9825,69789212.9005,4443.42352087,4434.8978206,0.0,1
1.14751293671,1.00381064132e-05,0.807355318925,-7298048.85314,2.40043961321e-05,0.0,5510935.20207,684.520366034,653.681679992,66106113.805,1819.79657051,45767975.5171,68530069.4539,4763.32620028,4753.12719464,0.0,1
1.0666069359,1.002696084e-05,0.885180657582,-34965598.518,1.59663649124e-05,0.0,5800271.36134,679.672605015,648.570916329,66921785.4869,1716.00336751,34700010.9746,70061319.5158,4427.48539092,4419.02017414,0.0,1
1.09401450653,1.03614966891e-05,0.756379758982,-23790875.0131,2.0119955768e-05,0.0,5714113.33492,681.189137895,650.408774262,66697580.5008,1753.06822778,36779120.0408,68850048.5925,4541.25421661,4532.65143064,0.0,1
1.1564458805,1.01573090899e-05,0.892127676783,-1967512.02004,2.22046690305e-05,0.0,5491644.9494,685.041841569,654.402489446,66021922.8624,1830.14335358,48928920.3472,68091526.8469,4800.40684996,4790.12967276,0.0,1
1.14209446401,9.98313348196e-06,1.05983002366,-7496369.7611,1.94472173496e-05,0.0,5535507.82179,684.122520845,653.38569361,66166737.0238,1811.32729068,46181688.1906,68504804.7572,4740.83412011,4730.46910551,0.0,1
1.04718685518,1.04078386037e-05,1.04305043978,-45984712.4906,1.38035293931e-05,0.0,5809355.64678,678.396410291,647.314258604,66938669.8349,1688.98795013,36154387.3838,70287006.4037,4346.87263585,4338.13378319,0.0,2
1.05709154642,1.02429104954e-05,0.940917246505,-39699776.0301,1.49704964424e-05,0.0,5821557.49239,678.980849139,647.947898328,66978015.2521,1703.86393118,34817012.0594,69652630.7156,4387.98700919,4379.76384955,0.0,1
1.18139605117,9.86450408361e-06,1.18701455802,3701379.80333,1.89369496491e-05,0.0,5735052.3402,686.551167288,655.934266437,65883336.3902,1860.57702594,52057797.6278,67167667.8793,4903.97500841,4893.21084514,0.0,0
1.10675481957,1.00614564754e-05,0.801379835936,-20362259.9986,2.01993122681e-05,0.0,5688776.16715,682.154638906,651.237470505,66631288.7672,1769.44353637,38246038.8126,68711696.2627,4594.13925604,4585.23692777,0.0,1
1.03784587329,1.02954758126e-05,0.991850297154,-53180205.7308,1.38536417344e-05,0.0,5885854.5396,677.986494884,646.739610458,67169109.4942,1679.55971988,39010012.0733,70807233.119,4308.09822003,4300.7427147,0.0,2
1.09027217474,9.89105712986e-06,0.85834325026,-25516400.2867,1.7486394251e-05,0.0,5707106.67776,681.288613135,650.14787774,66656280.3355,1745.77955693,36353600.5287,69194706.1776,4525.71979735,4516.30879882,0.0,1
1.08092002495,9.80560193543e-06,0.738111211624,-29843640.217,1.86597070685e-05,0.0,5772657.53819,680.652779694,649.450571125,66869139.0628,1735.61701772,35557292.4683,69337067.3525,4486.89902357,4478.40200606,0.0,1
1.22046792469,9.95222108647e-06,0.932307260965,12889843.3463,2.64890226735e-05,0.0,14120749.8645,689.166132921,658.383097067,65098103.6591,1905.74098893,58291121.3595,66387606.6603,5066.16235539,5054.07843792,0.0,0
0.985216320899,1.02666317275e-05,0.864441808826,-94881801.1443,1.45958207113e-05,0.0,5929703.07308,679.836779432,643.378860683,67183651.5628,1609.78620641,69808369.5149,70049648.5083,4089.63294805,4081.64287268,0.0,2
1.10108453554,9.52071242758e-06,1.01486896633,-23424319.7862,1.64528359074e-05,0.0,5740979.6768,682.071253765,650.871002466,66790974.8681,1761.59458236,37149425.5329,69376680.5736,4570.60190703,4561.68934683,0.0,1
1.09960378056,1.01377795434e-05,0.886262754749,-22525839.3414,1.84899373104e-05,0.0,5711568.84826,681.645373452,650.796871503,66689909.9406,1759.90368182,37274907.0258,68506264.3332,4564.4552931,4555.66600834,0.0,1
1.16057935156,9.82384272445e-06,0.829380917802,-2871204.13989,2.32673621507e-05,0.0,5445708.97345,685.643348371,654.656294025,65900573.0728,1834.60787008,48212734.623,67754304.8494,4817.56488833,4806.68075444,0.0,0
1.16787051553,1.01356318859e-05,0.915473893044,1054968.09281,2.25349738242e-05,0.0,5412312.18496,685.778513076,655.096802546,65773093.8275,1842.78373319,50357074.9443,67426752.4048,4847.83050996,4836.82211574,0.0,0
1.21498090696,9.87949217476e-06,1.027583676,11922231.4273,2.40137971715e-05,0.0,13199228.7234,688.700984759,658.024198239,65348688.6908,1900.30127591,57560672.1534,66418137.6651,5043.38574479,5031.8489873,0.0,0
1.18360416121,1.05040679222e-05,0.848886899541,5486496.59252,2.58259910525e-05,0.0,6986136.95749,686.572927986,656.065530009,65500818.447,1862.25000625,52644727.1259,66629509.7366,4913.14087318,4902.05920362,0.0,0
1.04276208382,9.80607815429e-06,1.04670140152,-51004927.7938,1.34070630282e-05,0.0,5837140.04676,678.771821622,647.098579694,67011220.4241,1682.76115233,38013422.0643,71019151.7021,4328.50540994,4319.75103449,0.0,2
0.97260605153,9.67325683903e-06,0.804090728813,-94549962.4737,1.51874270108e-05,0.0,6030660.35078,683.415520548,642.586095884,67472412.2258,1616.49328872,69515857.913,69749153.5343,4037.2877199,4030.4222624,0.0,2
1.03018974474,9.81748783855e-06,0.619728047911,-60991660.3271,1.72190976895e-05,0.0,5896902.91036,678.28431983,646.269719674,67183429.0982,1669.13307038,43266442.586,71021267.7501,4276.31763042,4268.98017845,0.0,2
1.11326623591,1.01339206081e-05,0.821313135655,-16250209.0653,2.02226354696e-05,0.0,5637057.40062,682.389707679,651.572951366,66466585.3836,1776.00388731,40587087.211,69264514.0079,4621.16814526,4611.67334436,0.0,1
1.15319758442,9.88432508069e-06,1.01386494756,-7282843.66894,2.13719471649e-05,0.0,5468985.33731,685.080280408,654.14724334,65989090.4172,1825.40381234,45655699.2544,68352758.7243,4786.92317293,4775.99881443,0.0,1
1.07956910748,9.66588137682e-06,0.86861747028,-30056702.7495,1.63389989081e-05,0.0,5752571.29245,680.772081395,649.435093815,66787205.6383,1731.83941746,35438508.3282,69461742.7007,4481.29136515,4472.07728999,0.0,1
1.14913801543,1.00385063013e-05,1.03883085104,-7406114.41685,2.07660330038e-05,0.0,5582132.249,684.543316856,653.899127902,66342947.5497,1823.860233,45870726.6301,68665032.279,4770.07190205,4760.68655741,0.0,1
1.11525741469,9.58420970456e-06,0.913656423798,-16711813.2548,1.85807457985e-05,0.0,5655371.27514,682.889932006,651.736063304,66517809.9395,1778.40947162,40403200.3653,69272378.1391,4629.43352838,4619.70796917,0.0,1
1.19289479921,9.55380718951e-06,0.863239041896,6162892.21056,2.49468795696e-05,0.0,7773688.97341,687.703096026,656.644621158,65576426.0963,1873.88362901,53653075.5143,66872318.8479,4951.70631152,4940.24993879,0.0,0
1.20042320469,1.00868399122e-05,1.14336340978,8194354.46161,2.1038892242e-05,0.0,9598331.52901,687.664504189,657.138973395,65516606.5588,1882.61419794,54761848.28,66736137.9174,4982.95672267,4971.5773766,0.0,0
1.01993723801,1.01176261414e-05,0.836168205852,-70648418.9592,1.50325921199e-05,0.0,5865113.65085,677.76955551,645.596820571,67058511.8096,1652.64687214,49917707.0442,70911804.8587,4233.75947498,4225.46010311,0.0,2
1.21653360572,9.89122465858e-06,1.05552630412,11914744.7447,2.36263170186e-05,0.0,13171793.5715,688.814093497,658.124524629,65291113.0394,1901.69171369,57571600.9691,66346275.9682,5049.83099734,5038.04119077,0.0,0
1.14881157412,1.02714796236e-05,1.05788405652,-6937894.96693,2.0688928337e-05,0.0,5573320.86621,684.391431871,653.899687962,66319112.1851,1823.30322527,46018354.864,68683551.2749,4768.71684417,4759.33505536,0.0,1
1.0802761285,9.72058451035e-06,0.982193895727,-30473913.5553,1.55710476534e-05,0.0,5794420.30744,680.567368554,649.40584968,66933504.5067,1734.57254075,35460752.6888,69405441.3618,4484.2262094,4475.73919204,0.0,1
1.10496924821,9.591873076e-06,0.920525087705,-21927421.1291,1.7945077049e-05,0.0,5719695.45447,682.325632987,651.146593494,66721402.6792,1766.74214886,37675240.3769,68627801.1733,4586.72734932,4577.75288149,0.0,1
0.986685050249,1.01020572051e-05,0.843954631003,-95202469.22,1.45262657132e-05,0.0,5983202.99465,679.6769405,643.488209044,67350749.5249,1612.10528349,70090483.1134,70332228.5672,4095.72964358,4088.66912953,0.0,2
0.986042341064,9.84666884018e-06,1.00953861073,-95064082.0232,1.35252536729e-05,0.0,5947123.41145,680.623861418,643.433426701,67236779.298,1612.66970177,69968723.1751,70211614.5512,4093.06175776,4084.97921015,0.0,2
1.01331128848,9.7965093975e-06,0.873135884214,-81801894.5045,1.43973503083e-05,0.0,5955670.82801,677.939561958,645.198164709,67309623.4996,1646.36795121,58665159.4173,70892392.7186,4206.25515848,4199.15802464,0.0,2
1.09279420388,9.99346241423e-06,1.03750974293,-25195175.5471,1.59776873548e-05,0.0,5748866.15403,681.205732331,650.29390121,66805280.015,1750.90766475,36477046.3732,69196980.0153,4536.18874031,4527.50644489,0.0,1
1.07702231738,1.01351020383e-05,1.01611014342,-31448284.2837,1.54164183755e-05,0.0,5790775.95162,680.258655875,649.324694981,66923791.8689,1730.88653645,35101924.4741,69258558.9725,4470.71963944,4462.47599752,0.0,1
1.0771144211,9.56530623345e-06,0.809227472749,-32326203.6241,1.72475575819e-05,0.0,5797540.6056,680.55677608,649.191086109,66934612.7159,1730.53684266,35068307.1286,69842940.7898,4471.10196199,4462.66397786,0.0,1
1.21783914072,9.58640584779e-06,1.19076930017,11795009.8762,2.11649817064e-05,0.0,13111162.49,688.996215313,658.197482478,65302849.8765,1902.47465261,57543483.3721,66407516.8123,5055.25027313,5043.09917242,0.0,0
1.17851551523,1.00552229458e-05,0.970226621733,3054186.64482,2.24786391702e-05,0.0,5387681.33385,686.43942885,655.741105695,65698460.9818,1856.29833996,51496565.0717,66957770.5615,4892.01790372,4880.91716464,0.0,0
1.17313945709,1.0235028305e-05,0.989657663541,2301984.65667,2.19642996547e-05,0.0,5409214.35996,685.968740535,655.409374781,65769597.8689,1849.66808304,51060043.5682,67015119.5862,4869.70188638,4858.80398338,0.0,0
1.14003777102,9.90288216793e-06,0.776453067571,-9039029.6563,2.41733664262e-05,0.0,5588540.80602,684.203020991,653.324399186,66357097.6084,1812.03570487,45169792.9686,68103248.4261,4732.2967875,4722.95258013,0.0,1
1.05142705061,1.00638623721e-05,0.958192609853,-44080110.8097,1.46613490911e-05,0.0,5810364.10634,678.872006384,647.586558888,66941195.3278,1694.56474723,35586831.5055,70485737.7222,4364.47368708,4355.72294091,0.0,2
1.07700428641,9.73429598725e-06,0.930074904325,-31810765.4645,1.59174172758e-05,0.0,5798956.19913,680.383238625,649.187715268,66941795.9347,1730.31517008,35170314.6775,69723417.2397,4470.64479289,4462.20851468,0.0,1
1.10727252947,9.83063011969e-06,1.28871935223,-20593367.3087,1.40142831388e-05,0.0,5728654.5125,682.129132004,651.276996184,66757596.2984,1769.42519642,38312200.0089,68848629.8844,4596.28826983,4587.27684256,0.0,1
1.15391295173,1.00672444901e-05,0.926656374636,-5945217.27365,2.31476747145e-05,0.0,5553360.69372,684.907688965,654.223600565,66259638.9473,1830.01577189,46652687.0924,68590945.6066,4789.89266263,4780.4289415,0.0,1
1.05982126348,9.77728527672e-06,0.905336874726,-42202700.9276,1.55682646986e-05,0.0,5789415.10994,679.559698704,648.094441971,66888891.2214,1705.54567148,35138048.4611,69620750.2104,4399.31806471,4390.28040642,0.0,1
1.13785201861,9.82158618081e-06,1.0293351067,-10194280.5909,1.94097484835e-05,0.0,5596839.64616,684.052876098,653.190753544,66369512.1039,1808.0821942,44358103.0792,67920864.4738,4723.22372925,4713.49563531,0.0,1
1.00583655214,1.04564724957e-05,0.980630087793,-85734614.8787,1.39497841637e-05,0.0,5875715.1005,677.385221317,644.688109576,67057043.4019,1632.95351008,61918456.7972,70578010.315,4175.22752793,4166.90730721,0.0,2
1.16611377319,9.87344097239e-06,1.03986659239,-141531.780089,2.01659462543e-05,0.0,5446209.63825,685.759711984,654.992363708,65892366.8866,1840.69908717,49954483.6588,67781479.131,4840.53827251,4829.55725625,0.0,1
1.17423715589,1.00712720955e-05,0.84854959693,2189241.73003,2.45308490566e-05,0.0,5362579.27791,686.287217625,655.47144011,65617881.147,1850.37375033,50987036.4429,66930797.5135,4874.2584341,4862.923462,0.0,0
1.1478426778,9.56114462848e-06,0.907023744327,-7252563.38234,2.1693458766e-05,0.0,5535607.15754,684.840534873,653.760387708,66184637.3078,1819.79406322,46239544.2879,68635900.5579,4764.69495555,4754.40039691,0.0,1
1.15516790483,1.02447677848e-05,0.959284486414,-5142113.71881,2.29107387079e-05,0.0,5541186.66757,684.925022533,654.346030801,66227414.5854,1831.47495106,46902688.5427,68445089.1995,4795.10197295,4785.61805195,0.0,1
1.0666477714,9.72576635699e-06,0.836967257912,-36928401.1026,1.62904048519e-05,0.0,5808500.47888,679.933383497,648.572563691,66952551.3915,1716.28815803,34678653.2634,70224748.5733,4427.65489908,4419.18874848,0.0,1
1.04366876255,9.51477882802e-06,0.985047195196,-52407016.7964,1.38700639019e-05,0.0,5891146.40296,678.872708,647.097122521,67177456.9882,1686.39113725,38684124.6251,71060020.4308,4332.26903335,4324.55349719,0.0,2
1.1126094695,9.94884605607e-06,1.00228953424,-18776504.9557,1.80412451817e-05,0.0,5692276.31846,682.450780912,651.586494598,66656469.9847,1776.77304743,39198255.777,69047586.555,4618.44190789,4609.44464534,0.0,1
0.998403727849,9.71305184306e-06,0.796069796823,-95839468.7932,1.50969861235e-05,0.0,5987558.13769,679.015995801,644.250166728,67385561.3668,1626.14911881,70651200.6902,70927742.5185,4144.3738743,4137.48619228,0.0,2
1.09494871232,9.78633489475e-06,0.956802555436,-24848687.4031,1.68917834598e-05,0.0,5748398.89927,681.509228239,650.431810519,66802885.8925,1753.94715736,36628481.3842,69267405.214,4545.13210484,4536.41590626,0.0,1
1.21633490487,1.0391687521e-05,0.879960499799,12703317.6916,2.78806504773e-05,0.0,13919811.8624,688.68643473,658.118427072,65070029.3584,1900.68745644,58065079.477,66320712.2561,5049.00619012,5037.11909495,0.0,0
1.12868162712,9.9714235152e-06,1.06139484341,-12310061.4374,1.81685223353e-05,0.0,5607586.43537,683.263391575,652.501066823,66392633.1437,1795.39649798,43042787.2741,67336336.0435,4685.15743418,4675.30461409,0.0,1
1.00244855641,9.92290302625e-06,1.04840279119,-95953899.2062,1.31749842281e-05,0.0,5907679.86189,678.396737755,644.481221023,67140021.4911,1628.08148401,70751166.9147,70751166.9147,4161.16395766,4152.81570504,0.0,2
1.01212555456,9.92597261175e-06,1.04589815377,-82016808.0125,1.28962180627e-05,0.0,5961628.2953,677.721643918,645.117585309,67327608.6556,1644.72224303,58835689.3202,70874867.4841,4201.33317698,4194.25279733,0.0,2
1.16643170257,9.86073784911e-06,0.808965133963,26755.528419,2.42976086176e-05,0.0,5416420.379,685.95466646,655.011656175,65800424.535,1841.45203767,50029364.4758,67693108.2163,4841.85799737,4830.87127784,0.0,0
1.08702661075,1.00850501714e-05,1.08909995515,-26867291.1247,1.49734309396e-05,0.0,5764722.36677,680.84146811,649.973449837,66846790.4639,1743.32596637,36022835.8745,69286148.7327,4512.24746122,4503.65536448,0.0,1
1.1050821423,9.92203719683e-06,1.20187490467,-21298910.1327,1.48605848075e-05,0.0,5729808.53637,681.980516483,651.14863673,66751626.1426,1766.95804707,37932297.8691,68740831.3288,4587.19597269,4578.32011255,0.0,1
1.05536472128,1.00777450822e-05,1.24379526734,-43098657.7379,1.24453496504e-05,0.0,5799158.30867,678.945440035,647.808616778,66910763.4337,1698.64348108,35321687.6507,69659528.8563,4380.81895803,4371.67943534,0.0,1
1.14321272593,1.002406115e-05,1.08352588444,-8722473.18338,1.90497735707e-05,0.0,5554048.57201,684.180143132,653.466746018,66230685.8179,1814.04624119,45098007.5689,68326144.7305,4745.47602534,4735.34914621,0.0,1
1.11555166864,9.87477318985e-06,1.19341671081,-16297672.5272,1.5494163584e-05,0.0,5691442.00314,682.514051571,651.734965538,66648133.0386,1779.58874267,40699577.229,69415710.8499,4630.65497652,4621.4211923,0.0,1
1.00602209685,9.60281089062e-06,1.10788202281,-93969051.6523,1.23527357196e-05,0.0,5930623.70214,678.531089089,644.716723794,67201825.5445,1633.23170312,69013758.6512,70971157.462,4175.99772402,4167.80778473,0.0,2
1.12305969649,9.76285505177e-06,0.939962508505,-14114064.7105,1.92624505414e-05,0.0,5647395.40325,683.166085854,652.202675371,66517318.6751,1789.29631672,41772182.0176,68832045.1847,4661.82080013,4652.36366811,0.0,1
1.22074188646,9.91514041327e-06,0.824095451778,13073221.6108,2.87752135346e-05,0.0,14346166.3584,689.277949284,658.407750154,65112200.3591,1906.78530624,58445597.6347,66374700.4052,5067.2995707,5055.40710513,0.0,0
1.12005902613,1.00173517158e-05,0.813679675385,-14512462.4083,2.09748293865e-05,0.0,5586544.8819,682.948979841,651.988265106,66310480.0618,1783.68599304,41491134.7036,68367411.0246,4649.36501747,4639.26333007,0.0,1
1.0763675157,1.04506336992e-05,0.743889607366,-31378482.7245,1.89380572427e-05,0.0,5680013.18865,680.240894675,649.258912748,66564771.2623,1726.8339536,34865512.792,68837880.3268,4468.00155767,4458.35961184,0.0,1
1.01880391477,9.75685836413e-06,0.920904934492,-75588982.0812,1.40907061499e-05,0.0,5945261.04542,677.995515888,645.543092232,67303417.3151,1653.748994,53694758.7478,70912161.3263,4229.05505021,4221.88008614,0.0,2
1.10562132734,1.04637444185e-05,0.789158448081,-17912637.7548,2.02235278992e-05,0.0,5645055.1441,681.800586127,651.134486831,66465699.1736,1766.34530817,39609593.3219,68744977.091,4589.43412979,4580.06613748,0.0,1
1.20382358353,1.02630493849e-05,1.04518162137,10071871.8653,2.32164133075e-05,0.0,11407185.891,687.751905819,657.290048972,65405108.0783,1886.15518639,55982349.4585,66992275.0696,4997.07169523,4985.61948692,0.0,0
1.11391593204,1.02540493563e-05,0.811330210569,-15772440.3325,2.0511894117e-05,0.0,5620610.09732,682.346264006,651.598656652,66414808.236,1776.44252886,40797232.1202,69253764.9095,4623.8650339,4614.26091102,0.0,1
1.13428643718,9.91976050356e-06,0.89143722865,-10042592.4358,2.12308605245e-05,0.0,5591607.61327,683.819253926,652.96200254,66349212.5643,1803.38360071,44424389.0083,67766868.9072,4708.42300073,4698.75738425,0.0,1
1.13451903305,1.02218648274e-05,0.896125824785,-11041674.3238,2.20154764463e-05,0.0,5610926.09727,683.621851659,652.987218126,66413932.2898,1805.3377317,43671592.2568,67768707.6538,4709.38850619,4700.26115228,0.0,1
1.01399374705,9.90336774737e-06,1.0361181186,-79998583.6183,1.30130630224e-05,0.0,5957261.95526,677.749079856,645.224745736,67317241.2046,1647.22886165,57194611.2347,70794343.0051,4209.088044,4201.98125949,0.0,2
1.04092728156,9.89153735966e-06,0.759450672247,-51622657.047,1.61481093849e-05,0.0,5822323.92221,678.652429327,646.924477271,66963434.6797,1680.54848468,38295928.0667,70816562.4364,4320.88914576,4312.1648742,0.0,2
1.05153888697,9.99443036886e-06,1.0006120764,-43104294.3767,1.40676736423e-05,0.0,5834313.35691,678.884103779,647.602053565,67009457.7444,1695.51913943,35389688.5483,70591070.7843,4364.93791981,4356.52478059,0.0,2
1.0479210468,9.48864708335e-06,1.18112272244,-49644959.7022,1.22947270201e-05,0.0,5848400.24334,679.127930561,647.38048626,67050749.6825,1689.46102454,37483394.8468,71231541.9425,4349.92026527,4341.07964282,0.0,2
1.06652863513,9.9292073168e-06,1.03299302938,-35533110.0045,1.40272649386e-05,0.0,5781150.29151,679.716935364,648.548627285,66859770.9945,1714.1582405,34614507.4249,70175346.4378,4427.16036442,4417.97954927,0.0,1
1.06829113529,9.89316890735e-06,0.96827628037,-35535068.0374,1.50195143783e-05,0.0,5806450.32642,679.843922089,648.679553056,66952573.1863,1718.34991993,34697085.6885,70111939.2134,4434.47650259,4425.98461136,0.0,1
1.05874195482,1.04188062552e-05,0.92604698308,-38193235.5453,1.52706880952e-05,0.0,5810136.13564,678.944822652,648.057660162,66948693.2866,1706.0824793,34650304.2263,69810154.605,4394.83785446,4386.58926854,0.0,1
1.14759704127,9.86769613272e-06,0.976799765321,-7021300.26718,2.01735390247e-05,0.0,5544882.24847,684.570585678,653.755749983,66196620.2043,1819.65803357,46169211.1341,68695576.1606,4763.67531831,4753.51416033,0.0,1
1.03080543898,9.7181278187e-06,0.849686038512,-61243866.1352,1.49877414245e-05,0.0,5912386.36806,678.311918693,646.310240563,67230322.5403,1669.77378342,43435387.0726,71130271.0749,4278.87337721,4271.5270945,0.0,2
1.10444824091,9.96474136521e-06,1.03527344389,-21326918.6597,1.68240952458e-05,0.0,5718981.53784,681.984619934,651.108152279,66716540.133,1766.24671433,37851689.9896,68678457.8827,4584.56464802,4575.69881022,0.0,1
1.02928249391,9.456466393e-06,1.0381293725,-65802789.6093,1.32415860636e-05,0.0,5936027.35781,678.454862105,646.209446528,67296850.7909,1667.57153314,46530813.2039,71212853.3895,4272.55163222,4265.22718447,0.0,2
1.08904650287,1.00745730445e-05,1.05616562943,-26168102.9699,1.55097713189e-05,0.0,5757321.07751,680.958377635,650.084411952,66826701.1991,1745.99389799,36153327.1228,69269916.4189,4520.63203341,4512.00839169,0.0,1
1.11053810072,9.66727617581e-06,1.01380161491,-20128251.6606,1.73665813499e-05,0.0,5705641.15925,682.542302011,651.478159431,66690027.6627,1773.82963509,38565798.9862,68921393.946,4609.84365609,4600.78013871,0.0,1
1.22152124875,1.03132668852e-05,0.759675212152,13593323.2409,3.13189847428e-05,0.0,14841257.9794,689.187515328,658.454769886,64970355.6105,1907.45521437,58831104.2748,66350173.6639,5070.53470356,5058.63223849,0.0,0
0.994891368315,1.01570587478e-05,0.85328381389,-95300417.8131,1.48878155263e-05,0.0,5908191.51577,678.816442413,643.999218991,67135303.566,1618.34609618,70176938.5103,70395111.6623,4129.79406988,4121.64907162,0.0,2
1.12237451691,9.75230339186e-06,0.829297314598,-14322683.8254,2.07242891221e-05,0.0,5640886.9141,683.180775706,652.156652148,66495202.2515,1788.52807751,41702522.1505,68913097.0907,4658.97661969,4649.53074438,0.0,1
1.10404207482,9.61211799724e-06,0.676822484137,-22104972.3368,2.156107961e-05,0.0,5699272.745,682.390734493,651.084836283,66657085.4083,1765.7838342,37568040.6572,68550314.0142,4582.87865258,4573.9180585,0.0,1
1.17734053442,9.64248616516e-06,1.33473406477,2193168.99377,1.6559556657e-05,0.0,5452924.40824,686.394949113,655.687923637,65929299.6653,1854.67625177,51352180.1788,67169218.6115,4887.14055838,4876.07561857,0.0,0
1.07056723566,9.98312492957e-06,0.967409678804,-33349794.6448,1.52671002626e-05,0.0,5797427.64192,679.868653408,648.805392091,66919403.3083,1721.15772902,34908272.9765,69813310.3767,4443.92459522,4435.39804331,0.0,1
1.08558409954,9.7838481826e-06,0.897079064987,-28259936.1158,1.69245828081e-05,0.0,5767825.73603,681.072529371,649.89799755,66849620.0376,1741.60596437,35842653.8143,69364171.2877,4506.25959719,4497.68999939,0.0,1
1.0578065306,1.03773019272e-05,0.861575581295,-38782631.6312,1.5844029312e-05,0.0,5810423.27261,678.949888614,647.998734335,66947108.0884,1704.88097286,34694737.3555,69719150.038,4390.95490852,4382.72073776,0.0,1
1.29484054326,9.60535605215e-06,0.830620067859,27134286.8411,3.57984193322e-05,0.0,28680839.3324,694.068881858,662.987403004,63997390.621,1990.7155721,68516696.5562,69594775.2427,5374.88309507,5361.5570373,0.0,0
1.21100725235,1.02454953532e-05,0.998336775321,11235501.3605,2.48140624039e-05,0.0,12487054.5682,688.300703696,657.753042827,65247632.9712,1894.48639007,56925609.2208,66238458.8707,5026.8911045,5015.09981706,0.0,0
1.10440158223,1.01111233551e-05,0.870039880852,-21160239.8732,1.91225856455e-05,0.0,5697172.39857,681.951100177,651.095803057,66653952.5315,1766.17481758,37875709.5121,68642196.8405,4584.37096784,4575.50598109,0.0,1
0.934649092116,1.02733559643e-05,0.936200089557,-92631739.9376,1.39357088255e-05,0.0,6076798.02047,687.645891611,640.130425059,67556173.8239,1604.08958898,67827369.4511,68037261.7203,3879.72838137,3873.08998724,0.0,2
1.03605720468,1.04866138124e-05,0.608893055018,-52288347.8829,1.79502807986e-05,0.0,5794741.15078,678.006891786,646.602701428,66879341.1507,1674.13561927,38370750.515,70604835.8299,4300.67345663,4292.02784221,0.0,2
1.13223462694,1.00107712382e-05,0.995851082212,-11064791.6393,1.99009383728e-05,0.0,5630496.20231,683.552960725,652.843429271,66478542.466,1801.83621938,43875418.7028,67721545.7803,4699.90593643,4690.71370535,0.0,1
1.19812225349,1.03276679016e-05,1.0678356014,8051268.91739,2.25621241135e-05,0.0,9434829.86749,687.465148151,656.974438855,65345238.6623,1878.59917864,54403976.1848,66546897.3341,4973.40547424,4961.64360259,0.0,0
1.00520640494,9.87820768928e-06,0.857646459347,-90984984.3938,1.43774728745e-05,0.0,5971681.80879,677.994944283,644.673502102,67346854.4403,1635.47175108,66414697.881,71091228.0374,4172.61178691,4165.62883555,0.0,2
0.906883491916,1.03700423979e-05,0.824030742192,-91362022.1202,1.40041370375e-05,0.0,6131947.02106,690.809406693,638.340845597,67691210.8072,1594.79373924,66709888.6051,67691210.8072,3764.47337494,3758.25463595,0.0,2
1.03124789032,1.02720102513e-05,0.763590309372,-59159651.8188,1.59676741585e-05,0.0,5829800.25055,677.937747748,646.304502084,66973160.5241,1667.81941346,42147482.8765,70886850.0816,4280.70999272,4272.22898006,0.0,2
1.06421025176,9.88291986414e-06,0.91390017256,-37440082.9311,1.5377266209e-05,0.0,5813543.64792,679.652950568,648.414960478,66966311.9877,1713.03520575,34671688.8217,70112356.0904,4417.53675506,4409.1087254,0.0,1
1.21617656667,9.44239599211e-06,1.0357529827,11349015.4466,2.34223787153e-05,0.0,12666461.9078,689.034924108,658.077255332,65355779.4407,1901.57637096,57168520.1828,66656240.5673,5048.34892825,5036.4482766,0.0,0
0.973804670234,1.05731766287e-05,0.909217375181,-94342212.5383,1.39207509642e-05,0.0,5980204.99901,680.828288195,642.652340703,67336495.1662,1607.42460167,69333223.6489,69566693.1166,4042.26318614,4035.08669144,0.0,2
1.14454694339,1.00488555676e-05,0.723165441303,-8497909.23547,2.60007576371e-05,0.0,5568715.73591,684.379900727,653.561919131,66293402.7996,1818.39889524,45155600.432,68268437.0027,4751.01436201,4741.70251213,0.0,1
1.11475785789,1.02036307835e-05,1.01022446574,-16086790.968,1.77927062403e-05,0.0,5595558.7416,682.378550726,651.636415837,66335677.5407,1775.75170413,40625507.4758,69174177.4769,4627.3598681,4617.0786255,0.0,1
1.10547538379,9.87564603838e-06,0.94236918765,-21457113.9986,1.82179740327e-05,0.0,5724226.32517,682.145566412,651.179735887,66743807.2856,1768.34287255,37890364.9929,68670536.2153,4588.82831811,4580.14564748,0.0,1
1.14321472779,1.02538030756e-05,1.02270951696,-7400976.87706,2.07358708351e-05,0.0,5582052.55048,683.975758475,653.46774485,66330141.6039,1815.62105095,45898774.7012,68469169.3534,4745.48433506,4736.08891525,0.0,1
1.11360771668,9.74885283235e-06,0.785459566894,-18971794.7572,2.08388250636e-05,0.0,5688400.33488,682.751619448,651.658727358,66639752.8292,1778.7929856,39038728.4767,69039015.0268,4622.58563194,4613.67514927,0.0,1
0.991739290432,9.96014833583e-06,1.13138749731,-95306222.601,1.23206262471e-05,0.0,5938888.98258,679.415312972,643.799790075,67218474.7099,1613.98848551,70181843.5436,70421715.1171,4116.70979458,4108.53537602,0.0,2
1.09934713977,1.0107561321e-05,0.943620377005,-22691541.5977,1.77715161939e-05,0.0,5718011.22608,681.623979312,650.781388155,66708387.1072,1759.53520193,37254911.8339,68642780.1247,4563.38997719,4554.603182,0.0,1
1.23181175527,9.9728866171e-06,1.04120484844,15838832.9398,2.54409183141e-05,0.0,17278193.2531,689.709963669,659.132397165,65174606.1042,1920.02903591,60760331.239,66845403.6024,5113.25059613,5101.62990695,0.0,0
1.1038713855,1.02883466865e-05,1.02419383189,-19017688.4049,1.70852798971e-05,0.0,5632625.45114,681.738011285,651.019766237,66438843.4442,1761.81784377,39171938.9996,68699222.3948,4582.17012121,4572.1604212,0.0,1
0.970707377864,1.01736401556e-05,1.29752189542,-94370747.0302,1.13125317688e-05,0.0,6049631.6575,682.615477036,642.463948435,67550493.4898,1614.74403625,69358127.1426,69588471.6514,4029.40632551,4022.89499794,0.0,2
1.2417709784,1.05382900385e-05,0.840836019239,18633816.1005,3.23155609657e-05,0.0,20382680.5242,690.208820887,659.699734764,64794433.9113,1930.63871038,62998558.5733,65675406.6899,5154.59133134,5142.68296031,0.0,0
1.04245372576,1.03076826367e-05,0.792279277843,-48769951.0618,1.59486722403e-05,0.0,5808994.67934,678.361279173,647.023007813,66925622.4344,1682.85477313,37010923.3289,70873559.0739,4327.22541563,4318.56359867,0.0,2
1.15364272372,9.89657363632e-06,0.88783409569,-5858779.04815,2.31287183672e-05,0.0,5515296.30165,685.08542246,654.196832494,66135550.1006,1827.91867915,46552052.0562,68581811.6327,4788.77094616,4778.67308505,0.0,1
1.19375482453,9.90361537808e-06,0.808813219578,6258344.76281,2.69490661239e-05,0.0,7857175.84324,687.690103681,656.720708118,65383839.3905,1874.41305181,53383166.7579,66585817.4749,4955.27627662,4943.57381152,0.0,0
1.06911149042,9.88979672906e-06,0.910629206712,-35165922.3123,1.56884080636e-05,0.0,5800872.82862,679.914462991,648.733277713,66936938.8103,1719.47507473,34711566.282,70055033.8226,4437.88179673,4429.3777942,0.0,1
1.05963546468,1.0232370161e-05,0.892055735863,-38525393.4608,1.55947128232e-05,0.0,5813333.25993,679.150071002,648.118481437,66956737.9954,1707.2874449,34699363.3603,69835905.646,4398.54681389,4390.28299238,0.0,1
1.05800450387,9.79424997111e-06,0.719570516985,-40701931.8113,1.71191681551e-05,0.0,5819696.31747,679.445670192,647.993497753,66972765.112,1704.89348129,34966464.6054,70036713.9431,4391.77669556,4383.44540105,0.0,1
0.963827729529,9.80966043884e-06,0.711423724009,-94093998.2463,1.58977934694e-05,0.0,6021552.34358,684.435074932,642.015010366,67425893.3079,1612.90399737,69114555.8906,69341583.7718,4000.84890527,3993.79225039,0.0,2
1.12952644288,1.02175976006e-05,1.07531507907,-11869922.1446,1.82745023041e-05,0.0,5592467.14219,683.273384528,652.639072651,66334434.0059,1796.5637533,43152564.2154,67403983.1358,4688.66426439,4678.79673109,0.0,1
1.18105135579,9.74100960706e-06,0.897106249536,3515848.71423,2.3615904234e-05,0.0,5670134.36872,686.787760818,655.913337491,65808632.3043,1860.47041556,52012762.9038,67074597.8832,4902.54417788,4891.73227888,0.0,0
1.09487471101,1.00194094315e-05,1.22822885261,-24445068.1415,1.39970616006e-05,0.0,5754445.15238,681.249423109,650.442235364,66825193.1366,1753.4805388,36693555.652,69123092.7564,4544.8249254,4536.10993699,0.0,1
1.17663925862,9.78315745241e-06,1.12420761117,2084612.94251,1.93823070203e-05,0.0,5428422.24688,686.385684757,655.639355653,65855109.5511,1854.03874262,51129628.4889,67078398.6567,4884.22956253,4873.16246358,0.0,0
1.08014292081,9.97350581597e-06,0.832452744647,-29582940.1564,1.74538144747e-05,0.0,5770502.15556,680.634464404,649.532644244,66851997.6349,1734.52428288,35556869.1206,69299859.1911,4483.67326428,4475.18740984,0.0,1
1.04974712815,9.59478768742e-06,0.82791597896,-48134500.2202,1.58262011943e-05,0.0,5816623.55394,679.273659925,647.48859827,66954573.9776,1692.1745315,36851921.2892,70587049.809,4357.50032895,4348.6295844,0.0,2
0.992385792718,9.72221653981e-06,1.15738216302,-95418127.5935,1.24259137782e-05,0.0,5998207.39983,680.287933631,643.85646753,67407497.2863,1619.9724636,70280212.0878,70524818.9882,4119.39342557,4112.24399207,0.0,2
1.00849543366,9.57193762119e-06,1.02832079388,-92150159.3357,1.33163704206e-05,0.0,5902175.80412,678.551629509,644.86975056,67127598.2774,1635.8366063,67419094.319,70910258.2191,4186.26454512,4177.73724093,0.0,2
1.27923502451,9.72547631231e-06,1.07737494306,24408449.0896,2.95465438168e-05,0.0,26175185.3053,692.921781812,662.041494959,64284232.9141,1972.69071389,67212959.4865,68200930.3063,5310.10458674,5296.79484588,0.0,0
1.14989989476,9.8283227161e-06,0.912479626797,-7699666.2431,2.27196496427e-05,0.0,5578495.00518,684.781409104,653.942015979,66328085.792,1825.07690692,45798479.1955,68634985.6626,4773.23446315,4763.83521929,0.0,1
1.1233727256,1.00033309183e-05,0.749502479815,-14131090.5997,2.28830431913e-05,0.0,5644574.96439,683.099899488,652.242926235,66513529.6841,1791.07686559,41968780.8446,68583537.4298,4663.12018397,4654.17037428,0.0,1
1.09785566321,1.0192017047e-05,1.0331741745,-22318227.7759,1.61051488408e-05,0.0,5685693.63183,681.46622406,650.661389584,66592379.451,1755.52603484,37308289.5057,68500656.7972,4557.19885798,4547.67950658,0.0,1
1.12307803339,9.61630761167e-06,1.18559094509,-14511714.8971,1.57816100519e-05,0.0,5650175.67458,683.166985481,652.19288489,66515984.909,1788.14987431,41692164.0329,68937789.6807,4661.8969166,4652.03881078,0.0,1
1.18602583779,9.95226689534e-06,0.905754678266,4595571.55666,2.42105400444e-05,0.0,6222049.7062,687.033059514,656.189370894,65531961.5519,1864.86789533,52369372.5707,66828311.028,4923.19325267,4911.65343768,0.0,0
1.03702702476,1.02181099394e-05,0.718989488289,-53801216.521,1.62160544791e-05,0.0,5830194.44557,678.19199353,646.657235618,66983474.7324,1676.23492593,39217466.1769,70964895.2473,4304.69917978,4296.30061647,0.0,2
1.04353852498,1.00134467846e-05,0.793342387753,-49819300.3175,1.60636362166e-05,0.0,5819374.04699,678.640861948,647.077114344,66959215.9318,1684.45798766,37371091.1489,70950044.5963,4331.72841719,4323.1374155,0.0,2
1.07278595164,1.02834384971e-05,0.888600214725,-31570753.8405,1.65953168877e-05,0.0,5774114.56398,679.946013154,649.029576052,66862563.8936,1724.46731367,35118280.6708,69367565.6981,4453.13448526,4444.66699111,0.0,1
1.2150083815,1.01133190288e-05,0.864068471642,12004840.8772,2.76528814726e-05,0.0,13246857.0777,688.755745222,658.030892368,65181019.022,1899.84832301,57537285.6673,66226434.7883,5043.49979161,5031.71724652,0.0,0
0.983685846285,1.00067019832e-05,0.794077164227,-95116919.4254,1.46558894998e-05,0.0,5991332.25124,680.233435841,643.295694664,67362712.7915,1611.28117921,70015037.6367,70256232.5221,4083.27994793,4076.17975118,0.0,2
1.19256762474,9.73188031337e-06,1.14879701038,5575585.70132,2.01408046881e-05,0.0,7185024.06489,687.408265111,656.619303837,65606399.9553,1872.6261882,53108016.3462,66892018.0085,4950.3482103,4938.68100215,0.0,0
1.11809154337,9.65937917982e-06,1.1565492803,-15818097.3029,1.57813947798e-05,0.0,5662458.44077,682.84222967,651.875004662,66546084.9479,1781.76418166,40924677.7696,69540150.4727,4641.19799653,4631.42448581,0.0,1
0.993181559625,9.6937346531e-06,1.24514009544,-95629771.0109,1.15178511177e-05,0.0,6003788.74302,679.67853138,643.911382924,67416224.4607,1618.19755217,70466555.7366,70708407.5693,4122.696654,4115.54508167,0.0,2
1.14648412247,1.02701700375e-05,0.966028983478,-7540986.51562,2.20283847621e-05,0.0,5573111.57823,684.243665594,653.717801327,66314258.6846,1820.45608949,45619971.0478,68520291.3866,4759.05559237,4749.71108819,0.0,1
1.08736444634,9.93509715621e-06,0.964739658076,-27186057.6192,1.64087752155e-05,0.0,5761103.29177,681.025474509,649.999413499,66834007.2406,1743.87782096,36009165.3267,69330180.0973,4513.64981676,4505.05244728,0.0,1
0.977754580172,1.01722571376e-05,1.19722201084,-94825610.7729,1.2001713618e-05,0.0,6030229.42219,681.081834215,642.918367511,67494505.9393,1612.84284263,69758811.3258,69994253.237,4058.65926229,4052.06003579,0.0,2
1.16028393137,1.02872870642e-05,0.850828112305,-1224398.39651,2.33597280162e-05,0.0,5433121.9105,685.285154354,654.628091205,65822728.0359,1834.05689219,49012071.8102,67608708.8548,4816.33859912,4805.57631563,0.0,0
0.976607817431,9.81079800007e-06,1.16211319635,-94881119.8698,1.22086488863e-05,0.0,6045287.89742,682.06048808,642.846223606,67525791.022,1614.81668092,69807343.4635,70044241.0235,4053.89905016,4047.2299839,0.0,2
1.16072858319,1.00235554691e-05,0.774790139335,-1989963.71769,2.45316503655e-05,0.0,5428715.29955,685.551858692,654.658945344,65821140.5505,1834.64291622,48611834.9023,67622112.6388,4818.18434882,4807.32246206,0.0,0
1.19563010758,9.35518392436e-06,1.01514368501,6245998.58638,2.21469601352e-05,0.0,7876875.88807,687.828549765,656.834023043,65777328.5531,1878.6953854,53869503.3696,67094718.5275,4963.06057656,4952.08786658,0.0,0
1.00377912042,1.01896660694e-05,0.987620212241,-91781718.0657,1.35912856996e-05,0.0,5913097.17328,677.839554033,644.568872605,67164859.0,1631.15827937,67095813.2383,70930732.6443,4166.68712886,4158.72915513,0.0,2
1.15653805328,1.04378297206e-05,1.03975591045,-1738935.59437,2.02405002293e-05,0.0,5437305.11154,684.855836021,654.381512854,65838109.2301,1828.04682733,48710804.6302,67770412.4769,4800.78945917,4789.78973094,0.0,1
1.10434981603,1.0561457982e-05,0.777514818157,-18512430.1273,2.05939876719e-05,0.0,5602565.76207,681.722664787,651.041064663,66339395.7954,1763.25459039,39351012.8872,68615672.0382,4584.15608634,4574.23267652,0.0,1
1.22297826354,1.02885889231e-05,1.19335058583,13731638.1873,2.22819026676e-05,0.0,15024898.0636,688.928120769,658.548673541,65159958.5901,1908.23451874,59042951.8631,66604540.6902,5076.58277195,5064.65600529,0.0,0
1.076613774,9.9713336204e-06,1.06306534182,-31141713.4806,1.45294223554e-05,0.0,5799210.29092,680.137731894,649.162998651,66946765.7806,1729.70496589,35280174.5496,69568276.0437,4469.02377587,4460.59354532,0.0,1
1.0518970336,1.03445875381e-05,1.0900749137,-42488517.6334,1.33343290732e-05,0.0,5821231.9388,678.604986681,647.608289279,66980342.6791,1695.98770484,35135338.9202,70423639.9717,4366.42458647,4357.93570881,0.0,2
1.1068434273,9.74515538654e-06,0.803379258661,-20750717.185,1.96543404215e-05,0.0,5699607.10892,682.379442483,651.255807615,66665166.3688,1769.33824834,38172003.9772,68715576.194,4594.50706672,4585.50163835,0.0,1
1.22954769401,9.84423928929e-06,1.11533190417,15199178.3043,2.35756179177e-05,0.0,16562923.7328,689.581048545,658.986697431,65257718.4172,1917.40013772,60333988.5513,66869091.9385,5103.85247784,5092.27271638,0.0,0
1.01556335787,9.84677198147e-06,0.695970227838,-78578862.0298,1.58789432777e-05,0.0,5939244.11565,677.935241447,645.341014965,67273895.1762,1649.53561511,56049283.2518,70922210.621,4215.60349852,4208.47449681,0.0,2
1.13291056734,9.84083276194e-06,0.880535436021,-11348495.0466,2.11960036695e-05,0.0,5599856.60332,683.811268348,652.870548349,66370519.9034,1801.88776234,43565075.1078,67547861.6178,4702.71176503,4693.06575224,0.0,1
1.20311038122,1.04444952886e-05,0.839648936504,9951604.72599,2.78649631989e-05,0.0,11220555.206,687.825566095,657.229607064,65152257.4229,1884.56886801,55773234.6013,66719006.5919,4994.11119244,4982.25609751,0.0,0
0.996792749347,1.04281161076e-05,1.06692873481,-95363634.0436,1.30096751482e-05,0.0,5905128.84384,677.953100615,644.11740723,67132530.2114,1620.83974125,70232788.3407,70560630.2045,4137.68670254,4129.51131877,0.0,2
1.12071738619,1.0262988409e-05,0.98248984605,-14308805.4309,1.88279948249e-05,0.0,5616945.48241,682.701306716,652.051866027,66403550.6409,1785.55096982,41654977.1636,68322385.6767,4652.09787007,4642.47860447,0.0,1
1.09584333284,9.76195971312e-06,1.02838278257,-24445450.4741,1.60248545822e-05,0.0,5746872.42089,681.557588263,650.496486516,66792365.8383,1754.72390993,36746051.1294,69218299.4301,4548.84567462,4540.01693182,0.0,1
1.02047326137,1.02975779068e-05,1.20706225518,-71724426.4483,1.18275509113e-05,0.0,5857874.58891,677.4447207,645.614693822,67042923.5766,1651.9379893,50732592.0768,70493158.7833,4235.98450795,4227.25730669,0.0,2
1.09282210505,9.46053443378e-06,1.06402832819,-26378087.2138,1.51535913708e-05,0.0,5770518.21979,681.606215591,650.334515412,66869446.2216,1750.74413134,36325263.484,69491768.8245,4536.30455806,4527.52371715,0.0,1
1.11788056552,9.65746925176e-06,0.971660246159,-15837549.2604,1.81866291954e-05,0.0,5647248.66449,682.92877684,651.862341777,66499035.8012,1781.67755103,40905223.2927,69478344.6696,4640.32222747,4630.55131899,0.0,1
1.01812997049,9.70416257336e-06,0.767025948667,-76856727.4446,1.54011242236e-05,0.0,5941957.60866,678.099497253,645.504723965,67289578.9388,1652.91166692,54685095.3264,70890334.7698,4226.2575075,4219.09211269,0.0,2
1.17590046976,9.69533260942e-06,0.898911367099,2096477.25369,2.30715320814e-05,0.0,5409624.96624,686.540700949,655.598389593,65794563.2372,1853.41558183,51245881.5067,67032490.4352,4881.16284997,4870.12368753,0.0,0
1.01178447398,1.02193224846e-05,0.849949860961,-81134431.3161,1.46439347939e-05,0.0,5937800.83661,677.460888297,645.084938789,67260466.1922,1644.23351905,58105707.3267,70791857.3876,4199.91735149,4192.84206239,0.0,2
1.08668375015,9.85404630961e-06,0.987315161871,-27681735.0659,1.60595181294e-05,0.0,5768178.77069,681.038494947,649.960013425,66853301.1711,1742.97796196,35949613.0508,69364483.5367,4510.82424687,4502.23687525,0.0,1
1.07154855223,9.57223560335e-06,0.89987175985,-34683248.8062,1.58239171483e-05,0.0,5814376.17626,680.39347146,648.977992742,66974959.6994,1723.19608634,34757868.611,70175143.8877,4447.99804031,4439.64609045,0.0,1
1.07939885904,9.59128588734e-06,0.98571747772,-31307898.0245,1.5396089488e-05,0.0,5802210.1884,680.603748711,649.348221001,66953729.2057,1733.41368669,35304144.061,69626532.2322,4480.58466387,4472.11126331,0.0,1
1.06581419941,9.85368657218e-06,1.07781496899,-36855136.7759,1.36979441382e-05,0.0,5821651.47777,679.693537515,648.518011913,66992541.9778,1715.01855294,34680302.2501,70229480.8236,4424.19474175,4415.74163549,0.0,1
1.23570293253,9.74381022079e-06,1.19747888475,16072216.3374,2.2289991113e-05,0.0,17602441.0713,689.993778249,659.367212891,65148395.0303,1924.08297208,61046908.9393,66927442.5434,5129.40287293,5117.42203751,0.0,0
1.06790526321,1.04978522795e-05,1.24134899313,-33327418.356,1.27173640809e-05,0.0,5813439.35147,679.226652021,648.621745455,66975717.501,1718.47977124,34771916.0713,69698779.5393,4432.87474758,4424.67228651,0.0,1
1.11248227739,9.98337354812e-06,1.13106368817,-16773021.3016,1.60110038486e-05,0.0,5643771.64646,682.355939845,651.542205622,66473140.4664,1773.58026334,40393030.5819,69187365.8703,4617.91393345,4607.94351548,0.0,1
1.14263715819,1.00935611366e-05,1.20882839776,-8762070.914,1.73729181674e-05,0.0,5566812.59003,683.92594564,653.346849358,66271079.7731,1813.14584983,45098723.2851,68345480.399,4743.08684365,4732.96981798,0.0,1
1.05092845544,1.00556931367e-05,0.906947324695,-43154610.7476,1.49154800717e-05,0.0,5827990.00848,678.840244464,647.563398465,66990239.7469,1694.77237859,35388202.5301,70547194.566,4362.40401853,4354.00208134,0.0,2
1.11507827171,1.01759995937e-05,0.843030474912,-15592286.1632,2.01320232228e-05,0.0,5631018.47441,682.446080838,651.67565545,66452191.1784,1778.30405513,40847544.1651,69249367.8624,4628.68990587,4619.16500343,0.0,1
1.03786573903,9.54681079361e-06,0.966373315712,-56234029.1451,1.42247182116e-05,0.0,5844749.11088,678.747357625,646.73393293,67023484.7418,1675.66792815,40494217.9883,71104084.2871,4308.18068271,4299.33384757,0.0,2
0.984965243894,1.01442134473e-05,0.954402620492,-95137497.9522,1.37181598289e-05,0.0,5990315.01963,679.793363876,643.37748995,67369980.3552,1611.38356517,70033258.0098,70274227.0142,4088.5907274,4081.55513677,0.0,2
1.13990594398,1.00610686415e-05,1.01995691155,-9440697.61272,1.98048455369e-05,0.0,5557822.05875,684.03319874,653.291053646,66237261.2158,1809.93236573,44624082.4026,68071619.8347,4731.74957346,4721.67925321,0.0,1
1.06229188333,1.02958898918e-05,0.924218687679,-37040210.6595,1.5450677352e-05,0.0,5806293.14672,679.235638552,648.291112623,66941181.803,1710.81677721,34614721.2769,70011187.4518,4409.5736077,4401.26875949,0.0,1
1.15714858656,1.02488446656e-05,0.9744655247,-2791430.95775,2.10428859442e-05,0.0,5493112.6958,685.00950467,654.445690471,66046799.7397,1831.26721848,48276031.2199,68034035.7293,4803.32378281,4793.03030394,0.0,1
1.10954855967,1.01031828708e-05,0.869730091452,-17483393.5743,1.91471231555e-05,0.0,5630730.89917,682.248118516,651.372820972,66435338.9822,1770.25119025,39970572.1813,68960618.7912,4605.73607119,4595.91332282,0.0,1
1.13362517025,9.79123628706e-06,0.748721303606,-11224205.8159,2.33823205191e-05,0.0,5587003.769,683.966078685,652.919167143,66329274.5036,1802.99239932,43603988.5284,67544280.4612,4705.67808171,4696.02021607,0.0,1
1.16284879073,1.00132442132e-05,1.18507695895,-826277.693383,1.79509405691e-05,0.0,5466448.94052,685.395668924,654.787983754,65945291.2439,1836.41738666,49488881.0536,67797803.557,4826.98533032,4816.05707409,0.0,1
1.15882292882,1.01766826539e-05,1.14090953152,-2547234.19417,1.84959741515e-05,0.0,5507263.74384,685.061075401,654.552389126,66091486.7576,1833.19460876,48445503.0598,68032568.9659,4810.27397753,4799.95162805,0.0,1
1.10161870273,9.71405194663e-06,1.01048770103,-19945713.1653,1.60761248997e-05,0.0,5715761.88386,681.949732093,650.923095054,66684870.4742,1760.90121402,38840297.3951,68598896.6042,4572.81923503,4563.53654103,0.0,1
1.06504351254,1.05528811596e-05,1.24915209662,-34926777.878,1.26709423836e-05,0.0,5820243.27321,679.06886837,648.474935857,66999204.5968,1714.98487203,34662118.6172,69835697.9846,4420.99562055,4412.93170709,0.0,1
1.1458275657,9.61569048574e-06,1.00660515499,-7866071.37042,2.03783796319e-05,0.0,5597889.59261,684.573959868,653.651383014,66397080.3527,1818.98677555,45972362.7315,68514477.4546,4756.33022522,4746.78675159,0.0,1
1.08857208028,1.02045518809e-05,0.883314963782,-25911269.7243,1.76275357071e-05,0.0,5740537.2343,680.905651015,650.044801803,66776418.468,1745.5025499,36180247.0678,69161689.9885,4518.66270524,4510.04647691,0.0,1
1.12531009799,9.49932958451e-06,0.9099720414,-14097726.1315,1.95648061974e-05,0.0,5622467.1618,683.534394667,652.339643813,66430273.6191,1791.27929811,42188829.1673,68633748.1827,4671.16221676,4661.241194,0.0,1
1.04699058301,1.01447521727e-05,1.04406563671,-47424875.2058,1.37937868378e-05,0.0,5822150.52055,678.612775399,647.310968198,66977034.5106,1688.88650118,36542731.9131,70353345.9348,4346.05791007,4337.41104856,0.0,2
1.12032638119,9.87855001964e-06,1.23724420002,-14880858.0547,1.53252014452e-05,0.0,5630533.06516,682.815159117,652.006184019,66442908.894,1783.60911091,41453603.1568,68735401.3,4650.47480832,4640.36937592,0.0,1
0.994522146569,1.03155266569e-05,1.00399070229,-95278932.0728,1.3647613343e-05,0.0,5911049.4619,678.437594148,643.97372965,67145667.4772,1617.80587753,70158020.1273,70518584.4655,4128.26143041,4120.12236648,0.0,2
1.1515069814,1.03357864211e-05,1.16357294079,-5989509.98399,1.93614786881e-05,0.0,5572830.09011,684.33322951,653.97647429,66321277.391,1826.57466692,46452412.7115,68597920.995,4779.90547979,4770.48043655,0.0,1
1.0401458298,9.85116099998e-06,0.958350498139,-52253357.0278,1.42331572622e-05,0.0,5838236.81341,678.566305874,646.871042535,67009947.4775,1679.35967127,38484793.6273,71015666.6175,4317.6453395,4308.9338767,0.0,2
1.078342831,1.00168894931e-05,1.09479654561,-30228627.1105,1.43049112276e-05,0.0,5790942.8646,680.382119431,649.407728218,66912831.1596,1731.95352044,35457335.8521,69348828.0365,4476.20109148,4467.74407046,0.0,1
1.08290161107,1.02993098994e-05,1.00064847676,-27770678.8581,1.60362817725e-05,0.0,5765133.80145,680.505343248,649.718596221,66836164.2832,1738.34699506,35793153.7271,69220713.0863,4495.12458755,4486.69379261,0.0,1
1.06391588129,1.02277906906e-05,0.742268684898,-36552238.3149,1.75127790955e-05,0.0,5794029.07438,679.444723557,648.397329097,66905228.7933,1713.09354933,34607610.5893,70058061.2925,4416.31482323,4407.98485231,0.0,1
1.09382105912,1.01665074371e-05,1.00783342828,-24307952.5039,1.65785468787e-05,0.0,5736247.03688,681.179761147,650.376621896,66755870.6117,1752.26419909,36665063.526,68996785.0174,4540.45121641,4531.75282174,0.0,1
1.17669739495,9.50023231075e-06,1.16451096985,1648051.8066,1.85489310781e-05,0.0,5471133.94953,686.522803273,655.670699671,65997000.9011,1855.20117148,51091473.567,67401486.1235,4884.47088644,4873.73372942,0.0,0
1.08185200121,9.97853784047e-06,1.24415553536,-28283168.6728,1.27057280476e-05,0.0,5758128.79745,680.595064954,649.633600698,66800539.6701,1734.5170185,35794516.6723,69231487.9406,4490.76765702,4481.5156873,0.0,1
0.990263978013,1.00903921145e-05,0.860596839826,-95353514.3119,1.44746794508e-05,0.0,5976355.44744,679.199693421,643.716816566,67333098.8475,1614.49512552,70223441.9744,70462982.0077,4110.58577273,4103.47391744,0.0,2
1.04872474291,9.51228672016e-06,1.14610492587,-49099388.5601,1.2608768166e-05,0.0,5840813.29989,679.271784342,647.509331936,67029087.8858,1690.55648288,37244887.193,71010838.0196,4353.25640782,4344.40253307,0.0,2
1.01521397455,9.97795587187e-06,0.921674030941,-77780376.7198,1.39825125953e-05,0.0,5945642.28936,677.712440324,645.315409588,67294414.3803,1648.97252497,55408723.3584,70887520.448,4214.15320836,4207.02915459,0.0,2
1.02063787657,1.03003294628e-05,0.924568925624,-71397051.4375,1.43140540002e-05,0.0,5839997.33536,677.560240627,645.626592735,66988508.3146,1652.35771545,50483594.8999,70435146.5837,4236.66782564,4227.93788197,0.0,2
0.997118643327,9.84079269322e-06,0.978208794227,-95482581.2682,1.41102092758e-05,0.0,5920619.84704,679.282774388,644.143419283,67172503.8647,1621.11593737,70337285.6855,70586643.3768,4139.03948845,4130.86118482,0.0,2
1.18926608373,9.96480477815e-06,0.785755190292,5920755.21359,2.69240528105e-05,0.0,7455125.47205,687.28704797,656.421644683,65548317.6661,1869.7764232,53261837.9625,66741654.4878,4936.64351356,4925.47391393,0.0,0
1.03140807655,9.9719699943e-06,1.01187904983,-60776348.6285,1.36503425193e-05,0.0,5860964.96556,678.137629231,646.327924257,67067673.0143,1668.22277191,43183641.3287,70941475.2358,4281.37492576,4272.97888743,0.0,2
1.02374982997,9.74846701682e-06,0.812479892714,-69656460.3521,1.51308495943e-05,0.0,5927807.80548,678.098731747,645.854369789,67263724.2756,1660.39225731,49224916.7177,70932638.1358,4249.58554421,4242.34018711,0.0,2
0.993132769011,1.02889191984e-05,0.815168124371,-95195462.1352,1.50531536775e-05,0.0,5905939.29075,678.723947914,643.885304969,67126991.9114,1616.03980684,70084540.1795,70332659.9088,4122.49412416,4114.37737535,0.0,2
1.10252263429,1.01090797328e-05,1.10562365269,-21791583.8157,1.59619037082e-05,0.0,5720739.802,681.743374865,650.987413197,66723576.4665,1763.52141248,37641875.147,68609633.9715,4576.57145494,4567.73614665,0.0,1
1.20965163537,9.89782815912e-06,0.728486770451,10712752.4475,3.05045324757e-05,0.0,12039938.5866,688.655749575,657.645168856,65139084.6826,1893.52221266,56535330.7595,66627068.1764,5021.26393842,5009.3613099,0.0,0
1.08393528948,1.00142447258e-05,0.971420694015,-28123752.794,1.61335659619e-05,0.0,5767638.26748,680.783617418,649.788875496,66850038.59,1739.38017038,35790379.219,69307422.6203,4499.41538663,4490.87147581,0.0,1
1.15262791844,9.76828651294e-06,1.06892200983,-5382400.49502,1.97627263878e-05,0.0,5553709.82954,684.939003827,654.138511093,66256284.7472,1826.59352968,47290860.6521,68783470.9184,4784.55848944,4774.59962506,0.0,1
1.00082624697,9.96017915267e-06,1.10234691268,-95786434.7328,1.26265637504e-05,0.0,5913975.69946,678.43217809,644.378259139,67157392.1642,1625.89201379,70604633.3164,70758931.6892,4154.42975117,4146.10792677,0.0,2
1.20499434088,9.7308743268e-06,0.815100769822,9839544.92641,2.74623335463e-05,0.0,11210752.8444,688.316422697,657.416839064,65488587.7188,1889.43756539,56001664.2638,66974980.1405,5001.93150899,4990.79630711,0.0,0
1.06245676729,9.49798900401e-06,0.721439043733,-42101759.5956,1.77655866084e-05,0.0,5778628.92523,680.00748506,648.265063734,66855795.1539,1709.13327749,35166003.2661,69700412.7835,4410.25804102,4401.17651135,0.0,1
1.18567973177,1.04469861997e-05,1.2535273152,5576347.88142,1.88688726932e-05,0.0,7071666.71009,686.48830283,656.19169463,65568322.3294,1863.42405242,52715654.2644,66730531.2952,4921.75656658,4910.3194021,0.0,0
1.07268425779,1.01216073138e-05,1.12920544895,-31898930.7869,1.37216352356e-05,0.0,5796755.70793,679.771542705,648.893581636,66924627.6861,1723.81220281,35146621.4506,69581381.0022,4452.71235409,4444.15178565,0.0,1
1.10833807746,9.83373289943e-06,0.95516658155,-18354093.9655,1.76974911063e-05,0.0,5674985.3114,682.316716612,651.324831446,66577212.8969,1769.61962832,39495925.7512,68867794.9514,4600.71135954,4591.19902392,0.0,1
1.06222993481,9.94943053293e-06,1.07482345851,-38131003.0413,1.36035292944e-05,0.0,5826070.36366,679.431423028,648.286833233,67002335.8883,1710.2988599,34706112.5455,70041808.9166,4409.3164594,4400.91934856,0.0,1
0.968015766519,1.01125881982e-05,0.873890670438,-94117116.1442,1.4846626074e-05,0.0,6022730.47164,683.457001201,642.286543316,67457896.3756,1614.86205077,69134928.0861,69363472.6484,4018.23344682,4011.46358005,0.0,2
1.04970366342,9.7006838135e-06,0.927051968108,-45911123.3316,1.45093179625e-05,0.0,5831044.25816,679.074909672,647.479506282,66994309.6442,1692.3486599,36188060.182,70598306.7471,4357.31990686,4348.59694416,0.0,2
1.09362536193,1.01819741027e-05,1.11714844654,-24367044.3275,1.51816169667e-05,0.0,5744166.19289,681.106444328,650.361668058,66780838.5525,1751.91150466,36663546.6333,69017526.8175,4539.63887737,4530.94355182,0.0,1
1.18386837612,1.01444733492e-05,0.798932876547,4852721.56591,2.65946805311e-05,0.0,6480094.18436,686.7811151,656.069025364,65664228.8886,1863.92237097,52562409.1961,66917727.5879,4914.23762927,4903.47084338,0.0,0
1.2027933745,1.00524933891e-05,1.17190876952,9173531.98444,2.08909786247e-05,0.0,10508866.9499,687.812774812,657.254621041,65388998.2562,1884.09194155,55383758.4871,66837432.4656,4992.79529755,4980.93938579,0.0,0
1.09438070863,1.01161102774e-05,0.979703582221,-24157450.6834,1.69642052607e-05,0.0,5734061.52373,681.261394372,650.417173714,66750170.5066,1752.92168046,36728712.3202,69018475.0577,4542.77432152,4534.06681703,0.0,1
1.16090192708,1.03342155078e-05,0.995288104497,-734975.467246,2.09971349498e-05,0.0,5445231.04055,685.186561832,654.665149957,65860998.5131,1834.43752832,49219561.3646,67602335.8428,4818.90389931,4808.13219553,0.0,1
0.973889261842,1.03327651674e-05,0.865353713625,-94390573.8852,1.48086336497e-05,0.0,6014534.32534,681.888319382,642.667322726,67451822.6149,1614.13512624,69375830.8893,69608164.328,4042.61432591,4036.05955995,0.0,2
1.19138656949,9.86874499252e-06,0.873406256928,5692221.60521,2.52371383239e-05,0.0,7265514.23203,687.473170526,656.547147412,65460465.4353,1871.47030296,53059367.8906,66637915.8059,4945.44564995,4933.78705129,0.0,0
1.11782889484,9.95146566476e-06,1.16496861976,-15370346.6058,1.6004570808e-05,0.0,5629844.46814,682.645716828,651.84438541,66437578.4142,1780.44304695,41132090.7164,69136080.1977,4640.10774248,4630.04476293,0.0,1
1.17484763895,1.01727584783e-05,0.790466113008,2645930.94186,2.58540790028e-05,0.0,5379679.76553,686.26333905,655.517976004,65678813.0984,1852.13882709,51317508.2714,66918879.3981,4876.79254928,4865.86432981,0.0,0
1.26186550147,9.83824171346e-06,0.87177014688,22067764.0355,3.23596543754e-05,0.0,23955696.2159,691.814086519,660.978566986,64692675.7371,1954.7640052,65717122.6077,66541380.8809,5238.0036966,5225.85527523,0.0,0
1.16214683656,9.9754214598e-06,0.997975313693,-2272304.60894,2.24452116774e-05,0.0,5525871.86685,685.481357323,654.777470933,66172426.4743,1839.52851277,48784004.8582,68266596.5186,4824.07151856,4814.35520591,0.0,1
1.15648414896,9.86448952823e-06,1.02651866001,-5464527.552,2.12503459118e-05,0.0,5558660.15259,685.139316207,654.386512108,66267690.2104,1832.99716747,47019108.4697,68643332.0703,4800.56570233,4790.96590084,0.0,1
1.19126591924,9.80357291752e-06,0.899796198097,5609529.69521,2.45793664876e-05,0.0,7212010.21842,687.467319118,656.534376279,65498418.3761,1871.31869139,53074269.6848,66784263.1737,4944.94483077,4933.29728732,0.0,0
1.12833873494,1.00692234014e-05,0.877167722148,-12145369.3035,2.08958605335e-05,0.0,5587213.81324,683.277237496,652.478598225,66331635.3028,1795.12613815,43083723.6937,67296142.1653,4683.73408874,4673.88706983,0.0,1
0.986595032145,1.00325462663e-05,0.906245701827,-95024974.422,1.42867410088e-05,0.0,5932932.7497,680.086869954,643.467139987,67197068.536,1611.0847596,69934344.0167,70177076.6619,4095.35597843,4087.26473439,0.0,2
1.17670195204,9.81258726524e-06,0.785375348627,2577096.515,2.56077669642e-05,0.0,5419248.4786,686.553856413,655.649241241,65811435.7188,1855.59674107,51427903.222,67090066.6321,4884.48980292,4873.85328896,0.0,0
1.23756803646,1.01019402299e-05,1.10104033725,17102889.7505,2.47694289029e-05,0.0,18669321.9094,689.772539712,659.322661546,65041644.57,1925.83936043,61736685.1423,67016150.6546,5137.14491935,5125.19923737,0.0,0
1.1557168105,1.00340847323e-05,1.031769874,-5557560.45257,2.1443371302e-05,0.0,5561336.99838,684.851827073,654.245904271,66286299.3035,1832.19636726,46892095.7816,68588828.1069,4797.38048039,4787.88771865,0.0,1
1.07175172642,1.05341078887e-05,0.856412878511,-31055390.3364,1.68844441344e-05,0.0,5771159.85679,679.708480733,648.970631731,66848723.4845,1723.41915198,35089375.7311,69197902.4272,4448.84141637,4440.48484253,0.0,1
1.0311940371,1.00864008362e-05,0.940754110636,-59307806.2994,1.42055914397e-05,0.0,5851623.79205,678.029880205,646.306958533,67036339.2596,1667.79203641,42251840.414,71039632.7975,4280.486448,4272.00598601,0.0,2
1.02484294973,9.6138835744e-06,0.908517279338,-69677634.2555,1.43225278007e-05,0.0,5934658.49365,678.232357181,645.926167283,67285794.4122,1661.77203621,49247461.9361,71012214.1725,4254.12308433,4246.86212983,0.0,2
1.06124047922,9.88859811562e-06,1.19951489438,-38851775.817,1.2433054603e-05,0.0,5834558.53428,679.502448527,648.306697405,67025529.7516,1708.8913163,34752871.7895,69987019.9879,4405.20922924,4396.82754942,0.0,1
1.16845798958,9.73397709066e-06,0.713550905201,-1021505.97297,2.84564573962e-05,0.0,5475552.79544,686.219423874,655.171466984,66011343.9397,1847.76951083,49373849.2033,67843473.3582,4850.26911475,4840.33808388,0.0,0
1.06560400654,1.01219373114e-05,1.03382194184,-35873849.9412,1.42646366267e-05,0.0,5808520.9794,679.500599904,648.50547706,66947048.1953,1714.77757939,34652459.001,70075463.5136,4423.32223115,4414.87241284,0.0,1
1.07136434755,9.95816509444e-06,1.16362532945,-33155060.5662,1.32485152131e-05,0.0,5808634.00766,679.848478493,648.850367316,66955290.5777,1722.05398933,34967485.9476,69818034.8618,4447.23340668,4438.69505963,0.0,1
1.07122026346,1.01937064776e-05,0.881525091396,-32225577.4403,1.63889874919e-05,0.0,5781373.39708,679.753768788,648.811124282,66875590.4304,1722.08240713,35041194.9413,69547596.0389,4446.63531362,4438.09775478,0.0,1
1.12487834786,1.05416172961e-05,0.838381962047,-12621312.189,2.15986493527e-05,0.0,5576725.41417,682.880218174,652.328778015,66290753.2734,1790.9921408,42684449.012,67117033.5353,4669.37002197,4659.68035751,0.0,1
1.08145588445,9.79625050392e-06,0.871078582763,-28923892.6451,1.65144200902e-05,0.0,5744659.60362,680.671624168,649.473433328,66767734.5462,1734.31554966,35741070.8276,69351159.6568,4489.12337635,4479.87798635,0.0,1
1.10357308969,9.89791504673e-06,1.02558084706,-21774998.7136,1.68324856201e-05,0.0,5723846.40253,681.983568934,651.055658548,66743442.4125,1765.12926344,37682447.238,68613806.1185,4580.9318953,4572.07988656,0.0,1
1.10737827874,9.62830632514e-06,0.720948872377,-19717932.8132,2.10555509634e-05,0.0,5617700.72878,682.60922915,651.258060323,66393490.2007,1766.9158257,38987942.0134,68648899.8479,4596.72723505,4586.56016594,0.0,1
1.03496435654,1.01375485949e-05,0.845710073699,-55474753.9567,1.51463675683e-05,0.0,5836135.5488,678.163533648,646.549104166,66998263.6603,1672.86206925,40119325.4103,70939342.5106,4296.137044,4287.59562473,0.0,2
1.09507185394,1.01063066404e-05,0.829399630223,-23914036.2347,1.88055751581e-05,0.0,5721340.83154,681.383683983,650.464728086,66723530.5957,1754.01692253,36783301.2452,68977919.1617,4545.6432657,4536.90057993,0.0,1
1.0031511723,9.78293263997e-06,1.16573388384,-96012244.6338,1.1983411315e-05,0.0,5945158.74438,678.458019197,644.536335805,67252709.1016,1630.26510057,70803046.9561,70837511.6802,4164.08051622,4156.13077549,0.0,2
0.969596280691,1.02670773788e-05,0.852320739116,-94228821.6497,1.48593606917e-05,0.0,6026971.34084,682.666336031,642.391585907,67481757.3314,1613.7347079,69233359.2938,69463166.5116,4024.79416115,4018.29797267,0.0,2
1.1876469363,9.96745378727e-06,0.840493855164,5431045.68082,2.5640205279e-05,0.0,7055149.34621,687.107612676,656.315590374,65658992.2527,1868.35314856,53063250.1639,66799867.8706,4929.92243258,4918.99468799,0.0,0
1.10577634823,9.96492825609e-06,0.88782694135,-20875288.9306,1.88312175538e-05,0.0,5703675.25149,682.124701702,651.185756224,66672344.8602,1768.12170805,38019932.4682,68704990.4481,4590.0776215,4581.19078028,0.0,1
1.04171912666,1.01840286907e-05,0.913430892199,-49795491.2806,1.47944845021e-05,0.0,5822790.44053,678.359233479,646.952653432,66964569.1538,1681.78916713,37476927.2438,70927836.3969,4324.17609477,4315.52639994,0.0,2
1.0865007659,1.02222832903e-05,0.754297615566,-26532194.8233,1.92164780853e-05,0.0,5736545.85083,680.851807267,649.933723627,66761442.6607,1742.89827065,36018916.6587,69162106.5664,4510.06467925,4501.48078694,0.0,1
1.14875072319,9.99409801719e-06,1.09999177996,-7602674.82929,1.97052223922e-05,0.0,5591163.82321,684.505083532,653.866503781,66369032.0473,1823.32742166,45720148.9916,68644813.3749,4768.46425196,4759.08511624,0.0,1
1.04649438666,1.02147613317e-05,1.14864084951,-47161194.3856,1.27257643002e-05,0.0,5825416.76632,678.485038343,647.276693058,66983071.5237,1687.97130075,36412952.7998,70197416.7136,4343.99819903,4335.27065824,0.0,2
1.22631787201,1.02906770123e-05,0.760010800523,14827457.5105,3.19252096292e-05,0.0,16294315.59,689.432928342,658.77438016,65046600.1057,1913.99116086,59919383.2249,66584732.8364,5090.44548671,5078.9310931,0.0,0
0.998520956599,1.05290289244e-05,1.15732181567,-95676543.4539,1.21968675218e-05,0.0,5902254.90698,677.561269723,644.223659975,67128034.6206,1623.10226082,70506928.5375,70506928.5375,4144.86049084,4136.65726555,0.0,2
1.08423454526,9.99889350619e-06,0.998160740117,-28051993.307,1.58504455408e-05,0.0,5769297.01883,680.799770341,649.808460026,66855713.8993,1739.74884457,35788433.3701,69319799.7469,4500.65759737,4492.10902677,0.0,1
1.11004168818,1.04997878954e-05,0.817575058576,-16839259.1242,2.06037488479e-05,0.0,5577556.84517,682.054821619,651.356266368,66262442.999,1770.12702318,40106541.8055,68866523.9874,4607.78304764,4597.57049433,0.0,1
0.970524782798,9.93065298069e-06,0.991058051931,-94309513.3879,1.39988052044e-05,0.0,5996824.162,683.196139535,642.440614868,67366800.8731,1613.03756804,69304349.8085,69535695.9118,4028.64837339,4021.20332599,0.0,2
1.06282638376,9.83067652845e-06,0.984422343976,-38302831.7356,1.45435116012e-05,0.0,5820369.00228,679.709052807,648.40808526,66983568.9435,1711.13028207,34721751.0729,70043775.6703,4411.79231899,4403.38590065,0.0,1
1.11251998363,1.01849364541e-05,0.797940079225,-16593369.7794,2.06584348134e-05,0.0,5652922.29666,682.31817005,651.543105834,66517806.257,1775.81286883,40467544.311,69175564.304,4618.07045205,4608.88585462,0.0,1
1.04031736225,9.45161803285e-06,0.649124917245,-54929015.9066,1.74995775924e-05,0.0,5820756.66959,679.070238118,646.889526442,66952744.4573,1679.15111639,39860015.0256,71385348.5055,4318.3573707,4309.46975204,0.0,2
1.12887990603,1.00033254103e-05,0.773433116759,-12099497.4377,2.24871740551e-05,0.0,5578096.16592,683.427992426,652.516543417,66303536.1894,1795.96463064,43116853.0548,67284546.798,4685.98048993,4676.12431467,0.0,1
1.00663500109,9.7207054893e-06,0.976312312177,-91509880.2137,1.36337400099e-05,0.0,5927710.66439,678.384688663,644.755831901,67204052.5318,1635.05658778,66879924.3824,70922171.4058,4178.54188952,4170.53736141,0.0,2
1.10945619017,9.49302534503e-06,0.689285296193,-19196110.354,2.16079116676e-05,0.0,5615093.952,682.84387356,651.386542463,66385439.1317,1769.80012875,39343550.5359,68744705.5088,4605.3526454,4595.14882581,0.0,1
1.22087749167,9.94852027244e-06,1.18277594432,12950777.6236,2.1923942509e-05,0.0,14144890.2168,689.008252231,658.408863137,65190410.6445,1905.69376055,58373366.7137,66509421.1307,5067.86246792,5055.74261307,0.0,0
1.15570734775,1.01985464991e-05,1.05088649075,-5158233.04214,2.13020745206e-05,0.0,5550586.5416,684.932606134,654.380012855,66254953.0149,1832.07452006,46940739.9531,68480772.5895,4797.34120051,4787.84859121,0.0,1
1.22123521472,9.87475340685e-06,1.35371264219,13009656.3552,1.93025771645e-05,0.0,14291297.0614,688.948350685,658.439747916,65322956.2202,1906.46111127,58464472.2415,66609693.5771,5069.3473763,5057.44607973,0.0,0
1.08198397799,1.02783819824e-05,1.21676959742,-28789713.2455,1.37275744063e-05,0.0,5783859.85949,680.393823984,649.667662772,66899115.0157,1737.23863297,35634544.6226,69261795.2659,4491.31549264,4482.99630205,0.0,1
1.16174000661,9.82455380133e-06,1.0797969098,-2715784.19237,1.91561080758e-05,0.0,5470796.72025,685.5389138,654.728111671,65979375.643,1835.69026087,48359233.2794,67825395.208,4822.38276744,4811.47788257,0.0,1
1.09127304981,9.74967056026e-06,0.886704753715,-25991898.0232,1.72821154931e-05,0.0,5750195.97769,681.390125947,650.226597136,66808761.4152,1748.8543115,36291550.2309,69334820.4817,4529.87442976,4521.11807668,0.0,1
1.08057332035,1.03105473995e-05,0.884295827238,-28538730.9414,1.71804117044e-05,0.0,5763517.84752,680.41410292,649.576104353,66840955.5765,1735.37344043,35670115.8893,69195891.4145,4485.45985277,4477.06491097,0.0,1
0.979623906179,9.57950352868e-06,0.669679855138,-94829779.9496,1.65070966514e-05,0.0,6009279.073,682.736868245,643.037928475,67418009.371,1619.07990214,69762239.0506,69999669.1792,4066.41883455,4059.45304878,0.0,2
1.09189858543,1.00461158713e-05,0.717257163552,-25207657.7262,2.01462119192e-05,0.0,5725476.91578,681.262373793,650.23629855,66730696.0085,1750.02271066,36372633.2608,69106616.6742,4532.47102812,4523.80201207,0.0,1
1.16839479633,1.01916268403e-05,1.05520676419,836372.561002,2.04710124579e-05,0.0,5453727.1505,685.668601957,655.143290209,65908807.1561,1844.48370094,50238722.9244,67518349.2915,4850.00679957,4839.40128506,0.0,0
0.992202178204,1.00555602591e-05,0.94577940873,-95259964.1417,1.40232642366e-05,0.0,5921690.81489,679.214526209,643.827883811,67168503.6742,1614.58226844,70141220.5339,70393663.2681,4118.63124172,4110.44953988,0.0,2
0.915957380734,1.00562597653e-05,1.17883635256,-91922769.343,1.163315356e-05,0.0,6128624.93217,690.320725026,638.924529723,67683514.5607,1598.89951166,67203279.7824,67683514.5607,3802.13908743,3795.50475598,0.0,2
1.04436014527,1.0094244643e-05,0.852148510311,-48962790.2093,1.55199160122e-05,0.0,5818173.63348,678.607481096,647.148763297,66958756.3203,1685.52258404,37117131.5352,71017948.8533,4335.13896302,4326.53467946,0.0,2
1.05971388509,9.882363138e-06,0.899501346264,-39549651.0783,1.52858949638e-05,0.0,5823686.6663,679.412770618,648.121109744,66988648.2195,1707.05886907,34817961.7093,69822051.3598,4398.87233701,4390.51444231,0.0,1
1.02772359119,9.98431764319e-06,0.976309268339,-62683884.0399,1.38641277296e-05,0.0,5918636.36568,677.917907558,646.106026171,67243827.7368,1665.77718363,44427555.4263,70947897.207,4266.08062703,4258.81640171,0.0,2
1.18104750266,1.01217421769e-05,0.878279976536,4145278.61452,2.45894440761e-05,0.0,6067605.08692,686.553353062,655.89198191,65732510.214,1860.39986919,52123277.0893,66999362.3985,4902.52818354,4891.81053065,0.0,0
1.185683119,9.57546296036e-06,0.800128683208,4294828.95628,2.57184048925e-05,0.0,6067577.19436,687.294392332,656.184948404,65626978.0799,1865.367051,52440120.8912,66985324.2695,4921.77062697,4910.44266014,0.0,0
1.07413593641,1.01554003265e-05,0.994324364073,-32558757.2454,1.55017480463e-05,0.0,5799837.31534,679.892453347,648.997573956,66947082.0401,1727.14059679,34930530.9188,69604135.1591,4458.73827204,4450.53844828,0.0,1
1.10428088302,1.02532647906e-05,0.94077215216,-18964013.4759,1.81625985818e-05,0.0,5625275.50977,681.831082147,651.045197922,66416196.929,1762.44045417,39222900.2882,68695224.0466,4583.86994542,4573.8531014,0.0,1
1.09782131002,9.34289600908e-06,0.822238116027,-24199901.5264,1.77778761775e-05,0.0,5705350.37834,682.082214071,650.598817534,66658840.7349,1755.69250652,36869055.3911,69267816.6597,4557.05625789,4547.44055573,0.0,1
1.00563947152,9.94489723274e-06,1.04209866537,-90846900.0786,1.32591234853e-05,0.0,5898697.65573,678.126995603,644.684088302,67117425.8685,1632.34529703,66270880.8207,70797513.6713,4174.40944628,4166.0093179,0.0,2
1.10106015078,9.82995151236e-06,0.87916669961,-22693978.6085,1.83827696451e-05,0.0,5723045.96564,681.941746715,650.888599276,66734867.4664,1761.9959119,37305960.3111,68868211.4563,4570.50068589,4561.68833744,0.0,1
1.00395599682,1.01614839705e-05,0.730333554435,-90400590.773,1.53277234352e-05,0.0,5933130.13641,677.723189709,644.585428232,67218142.1523,1632.59125226,65904293.1761,70785113.3791,4167.4213428,4160.02653547,0.0,2
1.14157222299,1.00923142944e-05,0.895687456055,-8978711.99833,2.19236134057e-05,0.0,5540129.83018,684.054845211,653.2902246,66187354.0842,1812.16558574,44925895.4922,68174879.2774,4738.66629763,4728.56909112,0.0,1
1.02772507913,9.81437316706e-06,0.779710907215,-64024097.4667,1.55204579435e-05,0.0,5913650.12293,678.134303632,646.101421012,67230016.2852,1665.72433086,45304576.5751,70909484.6962,4266.08680347,4258.78465627,0.0,2
1.05456915759,9.95830437414e-06,0.728795570075,-42689377.3858,1.69847699102e-05,0.0,5803099.72082,679.192297606,647.781623796,66919455.3021,1699.51911965,35251674.7392,70484085.6693,4377.51657316,4368.89306935,0.0,1
1.16350534067,9.69854018451e-06,0.97071476614,-1044954.40695,2.09831567888e-05,0.0,5488454.30887,685.729696553,654.849113289,66020509.0009,1838.79903791,49597770.7925,67876387.8562,4829.71066912,4819.19157333,0.0,1
1.15558878212,1.00874452782e-05,0.804421988429,-5365870.55502,2.56719284125e-05,0.0,5532626.30138,685.137439851,654.376283062,66197811.8592,1832.26527784,46899699.0529,68465632.8638,4796.84903458,4787.35833518,0.0,1
1.07710993092,1.00329616146e-05,1.03166250562,-30716624.6572,1.49635099503e-05,0.0,5793321.94395,680.138695365,649.196093037,66918573.4653,1730.38208792,35372128.1338,69338361.8415,4471.08332325,4462.64540868,0.0,1
1.15336866189,1.00146270786e-05,1.24869351401,-5895734.71323,1.76263857803e-05,0.0,5553432.52863,684.772673378,654.179674638,66259616.7128,1827.4584279,46521777.6422,68665603.2954,4787.63331551,4777.64510201,0.0,1
1.17250771215,1.0557769176e-05,1.06187311224,2645001.28768,2.0962553519e-05,0.0,5404549.13958,685.677522021,655.35934456,65713614.7587,1848.51553651,51100910.1011,66960093.8067,4867.07951313,4856.20597133,0.0,0
1.21518152416,1.00617743435e-05,1.07522115244,11847337.2115,2.33749587863e-05,0.0,13117274.6576,688.623746596,658.038732179,65259208.915,1899.75827895,57483784.015,66327338.818,5044.21850679,5032.43277975,0.0,0
1.22764371674,9.49707697132e-06,0.801129148764,14068435.03,2.93562631267e-05,0.0,15518382.6697,689.984716929,658.851766893,65062373.1962,1915.19210338,59300589.7108,66518678.9486,5095.94906819,5083.83458897,0.0,0
1.07033900919,9.43406440565e-06,0.76887648467,-34810688.1678,1.698340954e-05,0.0,5810188.53876,680.356822964,648.811754084,66959503.6255,1721.02912769,34755957.7496,70320032.2159,4442.97722715,4434.45474198,0.0,1
1.10353795388,1.03839956483e-05,0.956067116017,-18488976.9436,1.77060147242e-05,0.0,5669004.56241,681.634598036,651.012278172,66553535.622,1763.19590103,39386038.0569,68733169.7066,4580.78604656,4571.45282279,0.0,1
1.03406183299,1.02407225618e-05,0.878512587604,-55496969.6069,1.48219219053e-05,0.0,5836183.24054,678.021124197,646.4899173,66994869.068,1671.64643622,40108107.3036,70885606.0767,4292.39066874,4283.86385723,0.0,2
1.16305239797,9.39581503178e-06,0.775190254932,-3039435.05869,2.5900547705e-05,0.0,5523297.63865,685.971298629,654.797563672,66181251.5772,1841.00851957,48669031.377,68553913.1292,4827.83050397,4817.99094447,0.0,1
1.27426456749,9.82966419669e-06,0.853985698328,23925130.1862,3.32299441505e-05,0.0,25670716.3375,692.670842936,661.756294031,64334700.5026,1967.39069602,66852282.7765,67765225.0529,5289.47221965,5276.622783,0.0,0
1.00717571609,9.97656609889e-06,1.158300553,-89096161.6704,1.21604312605e-05,0.0,5901570.56071,677.945933621,644.779054515,67128982.1136,1634.31701208,64781774.756,70913332.1612,4180.78639749,4172.36114966,0.0,2
1.13307558046,1.00921223564e-05,1.00761858964,-11216518.3186,1.95015366516e-05,0.0,5581702.28793,683.516733235,652.797163713,66304415.1232,1801.21114049,43557606.2821,67611265.4515,4703.39673449,4693.46823857,0.0,1
1.04318555016,1.03027304591e-05,0.695973744382,-48431347.0913,1.69118996297e-05,0.0,5801416.0775,678.439908871,647.070596484,66904411.91,1683.89785859,36898283.7234,70676265.6986,4330.26321871,4321.58964824,0.0,2
1.01146497044,1.00809797225e-05,1.14946235021,-83525545.3897,1.22514683337e-05,0.0,5886458.36341,677.684007875,645.050072645,67090981.3842,1640.07436405,60079577.0865,70687222.4913,4198.5910923,4190.09555057,0.0,2
1.12909472356,9.90701235818e-06,1.04197640239,-12324687.7063,1.84277005218e-05,0.0,5604884.21839,683.442598799,652.605617487,66383789.9311,1795.97034141,43025918.6038,67334076.2666,4686.8721975,4677.01238669,0.0,1
1.11356287395,1.0049507971e-05,0.892045230081,-16422704.7655,1.93143861172e-05,0.0,5666613.86384,682.423587302,651.61209369,66556710.7482,1777.23701181,40583737.1189,69243956.9718,4622.39948977,4613.19698262,0.0,1
1.11621259611,9.81898966769e-06,0.883956855121,-17819267.7135,1.95692838897e-05,0.0,5673416.19073,682.785347707,651.79544448,66587925.5725,1781.35165399,39805397.3485,69188609.2086,4633.39848645,4624.24375127,0.0,1
1.05718261575,9.63188097065e-06,0.79148922499,-44201647.3356,1.66331419247e-05,0.0,5793237.98149,679.616082706,647.947749179,66893346.5309,1702.08116122,35610073.3452,70375724.1746,4388.36503798,4379.37121842,0.0,1
1.12281170565,1.02364923535e-05,1.09992875368,-13853445.3045,1.73337779746e-05,0.0,5621470.25306,682.793490053,652.18984173,66419751.3369,1788.10601487,41891621.2004,68024587.6584,4660.79139015,4651.13715119,0.0,1
1.17917857095,1.0112718063e-05,1.0640829161,3255495.08788,2.09079249125e-05,0.0,5393862.55185,686.376390306,655.779166346,65719921.5725,1856.90554205,51569278.1685,66997396.0648,4894.77024801,4883.65761124,0.0,0
1.06518661171,9.7268912407e-06,0.803586102394,-37592398.8979,1.65891819116e-05,0.0,5809921.98561,679.865504767,648.477078639,66954225.8567,1714.37656359,34689983.9323,70140332.0916,4421.58962521,4413.14633448,0.0,1
1.11835272491,9.95740817348e-06,0.595677353487,-15141556.9027,2.51084592553e-05,0.0,5622870.63182,682.947739503,651.893191108,66428254.294,1783.83925222,41195786.3443,69115129.6535,4642.2821611,4633.00201498,0.0,1
1.13530876545,1.02489998856e-05,0.899922455957,-10839987.9982,2.20657975182e-05,0.0,5607324.86441,683.652095389,653.038181569,66405005.4239,1806.35559984,43809697.1835,67828050.9951,4712.66668538,4703.52682251,0.0,1
1.22328312787,1.01330987145e-05,1.0386349585,13692188.746,2.48639592931e-05,0.0,14992001.4117,689.141730767,658.571126724,65149617.5923,1909.12867658,58997241.943,66561051.3314,5077.84826379,5065.93682621,0.0,0
1.19911026582,1.01251801149e-05,0.920807312322,9015360.68685,2.50986440961e-05,0.0,10439739.3648,687.672185428,657.058102254,65496621.2871,1881.44202771,55307011.9089,66757473.0107,4977.50671342,4966.35837593,0.0,0
1.12202910766,9.60024661102e-06,1.00535375388,-15323125.4151,1.84410344973e-05,0.0,5687833.43446,683.151926106,652.142523987,66644861.4154,1789.16459258,41305715.2242,69278168.1104,4657.5428259,4648.51000961,0.0,1
1.12968911806,9.70819476858e-06,1.17263941431,-12454227.7088,1.66279479804e-05,0.0,5642620.73559,683.52625298,652.650822562,66510467.1638,1797.51499507,42830788.5107,67896436.1936,4689.33952907,4679.74768971,0.0,1
1.07142149143,1.00701476118e-05,0.982714452657,-32662059.0599,1.52010874664e-05,0.0,5792518.03589,679.824479534,648.837427779,66907660.2034,1722.27315547,35032969.6016,69670514.4092,4447.47061093,4438.92989088,0.0,1
1.00381621944,9.85349137712e-06,1.13950447756,-92975423.5655,1.20438821853e-05,0.0,5989194.62468,678.026641798,644.590397262,67399087.9753,1633.4435844,68133350.7935,70997337.2795,4166.8411269,4159.87768096,0.0,2
1.1040485553,1.0067200703e-05,1.08212350797,-19279279.8645,1.59341597933e-05,0.0,5669230.21826,681.865459242,651.053696353,66543200.7964,1762.97483993,39043334.3087,68704077.4657,4582.90555305,4573.17745986,0.0,1
1.2024897325,9.70898958242e-06,0.748237564232,9115951.50448,2.88697756849e-05,0.0,10601042.5157,688.335366989,657.261372746,65332496.8008,1885.21041055,55450530.4941,66732756.3727,4991.53487961,4979.87578381,0.0,0
0.967449591404,1.01122864568e-05,1.14641149378,-94145659.4431,1.24976044999e-05,0.0,6038052.77631,683.409544459,642.250197518,67505241.3294,1614.47869652,69159968.8289,69388463.3346,4015.88325392,4009.12138073,0.0,2
1.10104343363,9.97028541007e-06,0.935222137062,-22318522.1275,1.78131701286e-05,0.0,5721235.325,681.82281352,650.889907208,66717157.5738,1761.90125705,37410257.5414,68655319.0666,4570.431293,4561.61920814,0.0,1
1.06350460211,9.46250261068e-06,1.01893024059,-38518834.012,1.38957187228e-05,0.0,5832346.89612,679.884614475,648.368881201,67011720.204,1711.42969592,34756689.2891,70085639.4238,4414.60760336,4406.00499806,0.0,1
1.0672408827,9.96562172439e-06,0.889664823067,-35714843.5728,1.58517679163e-05,0.0,5801218.8138,679.764346225,648.611540519,66935589.473,1717.03287197,34669002.3288,70092549.1569,4430.11690409,4421.64146704,0.0,1
1.06755884286,1.02727596828e-05,0.9864867593,-34805255.5464,1.51050070686e-05,0.0,5797797.98152,679.524178264,648.633463827,66925062.8739,1717.7088188,34690377.2322,69839474.4415,4431.43675671,4423.05031712,0.0,1
1.11434039566,9.62181601336e-06,1.04266141227,-17476740.2623,1.70927359561e-05,0.0,5628454.70213,682.794482989,651.666673203,66438647.6682,1775.6941094,40062382.2006,69089875.5642,4625.62698238,4615.33772733,0.0,1
0.978204887917,9.96935855423e-06,0.911428816386,-94866295.553,1.43222651353e-05,0.0,6022311.38009,681.49756187,642.947786866,67460897.3579,1613.75906027,69794342.2487,70032119.6094,4060.52848974,4053.83731664,0.0,2
1.0269259647,1.00360044308e-05,0.873736080225,-61984978.3707,1.46968287e-05,0.0,5903731.54735,677.856718677,646.041167415,67195170.1923,1664.1476418,43987568.7096,70883088.9202,4262.76967947,4255.34379529,0.0,2
1.09668388671,9.95047146184e-06,0.832301918178,-23970947.0048,1.87672702619e-05,0.0,5724367.38688,681.589101711,650.575146187,66734917.371,1756.17285143,36826188.2181,69053309.939,4552.33481373,4543.59071301,0.0,1
1.19626162998,1.01050328887e-05,1.18079556174,8405104.14695,2.02397053784e-05,0.0,9832297.20545,687.341369559,656.89089974,65616779.4647,1877.55167042,54875492.6872,66778688.1343,4965.68202605,4954.58489081,0.0,0
1.19336867195,9.63539971946e-06,0.815951029215,6403056.28476,2.61146070242e-05,0.0,7947266.34989,687.709792862,656.683827145,65583534.7849,1875.02552136,53691290.885,66819042.8478,4953.67335726,4942.4234668,0.0,0
1.0411362214,1.01642423543e-05,0.913384096148,-50738762.9796,1.45983063823e-05,0.0,5834223.25797,678.335166386,646.91334048,67004524.0728,1681.56683069,37833982.3475,70859146.2669,4321.75645503,4313.29226184,0.0,2
1.09934492506,1.01818110578e-05,0.816919841392,-22469354.6301,1.9420790478e-05,0.0,5704916.05347,681.633438918,650.780248068,66669912.6794,1759.63635976,37298289.0892,68444370.6601,4563.38078392,4554.59557597,0.0,1
1.19249183646,9.87325291765e-06,0.814268671806,5990911.43394,2.66651038238e-05,0.0,7541678.58366,687.602774471,656.623496164,65416145.1084,1872.91656388,53216469.8249,66663444.9762,4950.03361315,4938.35454989,0.0,0
1.21582381694,1.00484108582e-05,0.834852597573,12415764.3463,2.83570384513e-05,0.0,13688823.4985,688.803547445,658.097949377,65275341.2861,1901.97141594,57911762.465,66396166.3343,5046.88466412,5035.55729219,0.0,0
1.12577521229,1.01056571218e-05,0.732195707376,-13215033.2267,2.36084271869e-05,0.0,5629650.03557,683.210140256,652.404686801,66473619.5804,1794.19844386,42456592.7933,68122561.8785,4673.09290622,4664.10436716,0.0,1
1.21183084221,9.96996245426e-06,1.02538692638,11051200.6133,2.40305547971e-05,0.0,12356891.7796,688.485617968,657.790923205,65252214.5159,1895.41571365,56828990.0706,66460340.7708,5030.30982601,5018.36664388,0.0,0
1.13267831323,9.85080472913e-06,1.09147543187,-11489360.7797,1.80666102608e-05,0.0,5618900.33401,683.677683657,652.855501325,66429331.0107,1801.37962234,43500464.195,67591507.9424,4701.74767822,4692.10633282,0.0,1
1.11879018482,9.83849898932e-06,0.731441340579,-15090347.8268,2.20989457473e-05,0.0,5651061.70974,682.938264535,651.926486639,66519025.5713,1784.35285135,41282537.7454,69246034.2527,4644.09805719,4634.90621506,0.0,1
0.993385260746,9.95198405745e-06,0.881771914505,-95321170.5203,1.45792504172e-05,0.0,5919648.39832,679.328216957,643.903495161,67161588.9981,1616.13303759,70195073.0151,70443741.0813,4123.54221736,4115.34117722,0.0,2
1.06867335156,9.55729343306e-06,1.04651296437,-36087183.0864,1.38560102571e-05,0.0,5826921.46277,680.071603588,648.703419777,67009745.032,1718.82950223,34718280.4926,70391435.33,4436.06308233,4427.56643377,0.0,1
1.07890490289,1.00625225145e-05,1.03861317136,-29765321.073,1.50139997801e-05,0.0,5783812.12601,680.411834438,649.449603227,66892516.6382,1732.73018843,35498889.6262,69323187.1294,4478.5342519,4470.06851446,0.0,1
0.977694854468,9.74478848369e-06,0.870199206806,-94768306.8052,1.46520437012e-05,0.0,6023992.89038,682.442746847,642.914058033,67462621.8874,1616.88139474,69708013.296,69945529.6561,4058.4113409,4051.55520857,0.0,2
1.10527487857,9.65636498585e-06,0.999904517847,-18917742.548,1.64854126605e-05,0.0,5705896.47481,682.208808304,651.151941817,66658626.0609,1765.66696351,39326203.8007,68774673.7834,4587.99602094,4578.65168513,0.0,1
1.05785735742,9.76663175506e-06,0.982812903978,-41878474.0898,1.4432700703e-05,0.0,5818812.56421,679.390681113,647.979869208,66971490.7695,1703.64073252,35184886.0277,70120689.2182,4391.16589065,4382.48949034,0.0,1
1.14180097057,9.94889377841e-06,1.1339257304,-9258563.60827,1.81347748124e-05,0.0,5570333.32786,684.028391225,653.319242507,66277138.0245,1812.23917601,44819576.3168,68215383.5568,4739.61582884,4729.51304057,0.0,1
1.19109217126,1.01222399263e-05,1.03888564004,5891811.24379,2.23073287021e-05,0.0,7430265.05377,687.188713272,656.543339961,65472440.2623,1870.57234671,53039364.4675,66652032.3025,4944.2236029,4932.59030743,0.0,0
1.1047904464,9.80199964667e-06,1.05569132331,-21316325.2999,1.63576834002e-05,0.0,5722864.44613,682.099156127,651.130421314,66733621.1574,1766.43758451,37930208.9962,68684768.2056,4585.98514301,4577.01250083,0.0,1
1.01739875979,1.04080253588e-05,0.886403993484,-69341771.1247,1.43404955917e-05,0.0,5882566.45467,677.380364614,645.436595549,67107920.2062,1650.12869145,48964017.6296,70683132.2493,4223.22225189,4215.35949185,0.0,2
1.02651160563,1.02850204549e-05,1.01909627315,-63338807.629,1.36096347047e-05,0.0,5854352.98771,677.664591723,645.994984367,67041732.9335,1661.37017646,44786831.8219,70854338.267,4261.04967497,4252.64498452,0.0,2
1.15009756053,9.89985103793e-06,1.01583824222,-7444330.28679,2.10902842216e-05,0.0,5583405.36081,684.706361498,653.961643145,66344706.8673,1825.17879898,45930566.8787,68687463.2077,4774.05497376,4764.65255822,0.0,1
1.12384963235,1.00287267713e-05,1.00771047493,-13426008.6702,1.8612978879e-05,0.0,5613757.84245,683.044089389,652.255973786,66404520.2308,1789.25462384,42314671.9558,67965514.4214,4665.09982388,4655.3286279,0.0,1
1.17666794041,9.94792383546e-06,0.81217088566,2506300.51169,2.53537485479e-05,0.0,5413989.09712,686.461764331,655.642822626,65799906.9106,1855.49163161,51309017.0955,67062824.2197,4884.34862064,4873.70563628,0.0,0
1.18359960149,1.02852224834e-05,0.628302273299,5572897.28788,3.13606016336e-05,0.0,7163621.77496,686.832861229,656.054622383,65536049.8326,1863.55368707,52954038.5646,66798182.6477,4913.12194579,4902.36574754,0.0,0
1.13026863876,1.01791474255e-05,0.758773682724,-11646371.5294,2.30798706648e-05,0.0,5561120.88714,683.529045784,652.689722204,66238788.3233,1797.88866061,43240688.293,67358448.8065,4691.74511949,4681.86501833,0.0,1
1.18908628981,1.00605100367e-05,0.894920155249,5829535.62996,2.46715489234e-05,0.0,7357647.0133,687.15425552,656.40159371,65530955.0531,1868.81854766,53040630.8368,66704070.9384,4935.897189,4924.51411518,0.0,0
0.986499809557,9.90731372627e-06,0.99675626904,-95064873.6062,1.36391591744e-05,0.0,5942795.92633,680.405762473,643.462202861,67225047.2978,1612.22084052,69969430.4992,70212760.3319,4094.96070947,4086.8709981,0.0,2
1.24754454222,9.8391470207e-06,0.894000105009,18975464.7379,2.99598093843e-05,0.0,20582115.5843,690.960182585,660.050038664,64706310.897,1936.86749756,63173306.8381,65557345.5903,5178.55739476,5165.95843595,0.0,0
1.15175460785,9.7224876625e-06,0.728367821843,-5308124.02982,2.56403251462e-05,0.0,5491305.59115,685.175389193,654.069632665,66054620.134,1824.83377943,47257926.5682,68609217.1498,4780.93337719,4770.57325398,0.0,1
1.01096937869,1.03247180784e-05,0.847646854423,-75517132.5739,1.4152076833e-05,0.0,5903106.13398,677.254939653,645.013910435,67134524.2985,1641.21064609,53635440.6479,70584414.8403,4196.53389094,4188.77704943,0.0,2
1.15141800171,1.018003086e-05,0.852315993825,-6350124.12366,2.43888623062e-05,0.0,5549653.99733,684.725969387,654.068104425,66247886.384,1826.88533636,46340330.5388,68592435.8858,4779.5361251,4770.11419481,0.0,1
1.17260720569,1.00976803204e-05,0.885143432417,1731549.01584,2.36906605879e-05,0.0,5388934.63653,686.126426932,655.378763635,65711329.166,1848.8868888,50694472.0641,66950676.2069,4867.49251082,4856.39321444,0.0,0
1.09061096992,9.84632845235e-06,1.04792514575,-26369263.325,1.55798062592e-05,0.0,5762059.92471,681.221515569,650.189382786,66840030.9428,1748.05542137,36221762.8271,69351591.1298,4527.12613614,4518.47802938,0.0,1
1.04786954345,1.01464418442e-05,0.920000159163,-47079313.4077,1.50283632519e-05,0.0,5812221.80277,678.702773921,647.364771688,66948630.514,1690.14237453,36464275.6832,70207919.2781,4349.70647486,4341.04536701,0.0,2
1.01955336678,9.94687918111e-06,0.974148091935,-72938542.2153,1.36495639398e-05,0.0,5938110.08928,677.786584,645.598149299,67286322.7174,1654.7590067,51650172.4076,70957863.1639,4232.1660255,4224.98041365,0.0,2
1.02088561539,9.91597955426e-06,1.08481732252,-71634873.7922,1.26723374646e-05,0.0,5941756.41653,677.788355548,645.671287148,67301763.2758,1656.44230849,50676379.3162,70957364.204,4237.69618948,4230.4916332,0.0,2
0.909532450762,1.00240350619e-05,0.933950067147,-91531523.1471,1.35986511842e-05,0.0,6117479.0424,691.418807176,638.507291171,67641034.8538,1597.34032247,66859073.7268,67641034.8538,3775.46920311,3768.6788174,0.0,2
0.984161665473,9.9083197924e-06,0.962100431932,-95182165.604,1.35448135809e-05,0.0,6000505.58802,680.373758159,643.327090246,67391512.2848,1612.2272034,70072576.6101,70314054.8744,4085.25507338,4078.1481899,0.0,2
0.981774693841,1.02870173195e-05,0.926220773275,-94744190.5252,1.41082782299e-05,0.0,5940419.09309,680.278185003,643.15793439,67210476.5644,1608.96820298,69687054.8778,69925941.4181,4075.34675413,4067.41292793,0.0,2
1.03081171894,1.03482198159e-05,0.986463697613,-59492765.8688,1.40111469009e-05,0.0,5819557.86827,677.774501565,646.267917569,66943933.8124,1665.82132255,42298193.3112,70622369.7822,4278.89944532,4269.99934499,0.0,2
1.18621255114,9.52406307015e-06,0.918786581199,4361014.38464,2.3341057323e-05,0.0,6195465.95909,687.213931445,656.230061302,65789228.5248,1866.91880571,52632226.0135,67109954.9661,4923.96829978,4913.059027,0.0,0
1.10891400493,1.0105376865e-05,1.05840512279,-17708223.2883,1.66846758223e-05,0.0,5649243.06597,682.115503775,651.335810822,66491574.5846,1769.24015887,39832884.7395,68976834.78,4603.10203446,4593.29014039,0.0,1
1.12910431893,1.01377304664e-05,1.1861608869,-12167897.3527,1.67073559122e-05,0.0,5609874.99058,683.13155203,652.529525288,66385390.58,1795.93647264,42998722.1597,67375458.2157,4686.91202788,4677.05163971,0.0,1
1.00443249494,1.01463011263e-05,0.947140838072,-90317722.4606,1.41010869211e-05,0.0,5887559.63988,677.884592233,644.605036676,67084523.6255,1630.85654528,65824400.6052,70756580.4412,4169.3992865,4161.0201464,0.0,2
1.05382817317,9.99837829844e-06,1.12207645759,-42969938.2421,1.29395456152e-05,0.0,5828440.33336,678.967629718,647.738486413,66996875.9234,1698.2420501,35363122.0549,70559046.0527,4374.44074683,4365.83055952,0.0,2
1.12676575273,9.87631605168e-06,1.1415429244,-13048194.9838,1.68692855934e-05,0.0,5650665.02027,683.239279119,652.460288547,66523993.2247,1794.14759317,42411114.6893,68215086.227,4677.20463958,4667.78832024,0.0,1
1.10949410513,9.91217858977e-06,0.850669384816,-17802457.2514,1.92418112828e-05,0.0,5632739.68649,682.396653429,651.373850077,66446547.7085,1770.02607034,39892602.2981,68943363.7583,4605.51003039,4595.59119732,0.0,1
1.11245790049,9.89698262355e-06,0.978185914611,-17089988.3048,1.80194484204e-05,0.0,5683435.94176,682.447048398,651.567864622,66619487.3476,1775.76651049,40269103.1609,69170512.2164,4617.81274493,4608.6281109,0.0,1
1.10657075366,1.05372053546e-05,1.13358976542,-17552518.3454,1.58761322957e-05,0.0,5667339.68697,681.62248199,651.187313744,66539024.7947,1767.22896438,39831466.425,68905361.5014,4593.37519844,4583.99089763,0.0,1
1.12037510515,1.03713516327e-05,0.870937686895,-14089898.1535,2.04603113718e-05,0.0,5604203.19144,682.671850857,652.028928324,66364352.15,1785.25435272,41712006.8388,68149745.6871,4650.67706148,4641.06356834,0.0,1
1.12706751021,9.85271428179e-06,0.771122240585,-12806597.284,2.22565899419e-05,0.0,5611108.75504,683.472543991,652.477647059,66397182.3461,1794.57423024,42508304.6034,67984496.172,4678.45723488,4668.9341512,0.0,1
1.18090641576,1.02303291505e-05,1.13855575299,4227387.38871,1.99425317838e-05,0.0,5994436.31702,686.317792428,655.872908414,65749949.2141,1859.10703375,52176686.1274,66883525.1753,4901.94253182,4891.0086474,0.0,0
1.12957409155,1.01611257928e-05,0.740989055305,-11846547.0897,2.32904114374e-05,0.0,5565022.52288,683.399842021,652.562929832,66248692.7628,1797.03040603,43119654.9356,67301073.1547,4688.86205402,4678.99371406,0.0,1
1.11036696043,1.01497562178e-05,0.887635290731,-17332413.0059,1.91616628594e-05,0.0,5669187.72317,682.194791997,651.434058759,66564162.7788,1772.93347887,40087189.1529,69053921.4132,4609.13325274,4599.98251776,0.0,1
1.14872663735,9.92835472016e-06,1.05705670157,-7739590.56155,2.03117963139e-05,0.0,5590690.93229,684.564753183,653.862032965,66365858.225,1823.38140932,45702395.5794,68616763.3641,4768.36427164,4758.98384453,0.0,1
1.05867924663,9.55638344875e-06,0.841573356623,-43780270.2639,1.61176351001e-05,0.0,5795963.66012,679.720306375,648.03797863,66903328.1224,1704.00816529,35519829.3496,70355335.5223,4394.57755276,4385.55887849,0.0,1
1.07391825016,1.04120236438e-05,1.01935957635,-30521435.5117,1.52639658681e-05,0.0,5774355.48291,679.876805714,649.116942222,66855240.4166,1725.84774393,35223058.3497,69222709.0327,4457.83465641,4449.34950844,0.0,1
1.15593471365,1.00431358396e-05,0.740282144421,-5349374.04875,2.70554659678e-05,0.0,5526643.85225,685.227032991,654.398638501,66179408.8794,1832.8066762,46936772.2387,68455085.8148,4798.28499636,4788.78872412,0.0,1
1.10361144068,9.88201836986e-06,0.854397629696,-21745115.8258,1.89835081503e-05,0.0,5711073.53035,682.079059824,651.059688054,66703946.3043,1765.34384887,37674064.3726,68573084.1499,4581.09109026,4572.23847568,0.0,1
1.23541774077,9.76167158548e-06,0.925403539979,16147198.5636,2.75999904704e-05,0.0,17705228.5719,690.168636311,659.34820627,65034190.9558,1924.16776508,61064571.3216,66805614.5133,5128.21904194,5116.24344696,0.0,0
1.12057907145,1.02510863023e-05,0.835974410149,-14349049.89,2.07764997853e-05,0.0,5605444.55884,682.776305145,652.042287755,66367165.3483,1785.51948007,41660156.1176,68312215.8149,4651.52372559,4641.90584668,0.0,1
1.18455052208,1.01480100906e-05,0.939298234918,4926715.95941,2.3728007158e-05,0.0,6552452.84268,686.718080754,656.113646869,65714110.7303,1864.52087854,52631276.09,66961933.5619,4917.06921715,4906.29053661,0.0,0
1.18969959034,9.87941180259e-06,1.03867061376,5240965.88615,2.19441255821e-05,0.0,6845697.51658,687.220085799,656.434936829,65551266.0794,1869.14460676,52817333.6334,66853453.5536,4938.4429995,4926.81560943,0.0,0
1.22558039737,9.69042381535e-06,1.00417766974,13821545.6727,2.51387198634e-05,0.0,15243746.2718,689.542741545,658.722819601,65208802.7016,1912.61767961,59156093.7256,66624851.916,5087.38422948,5075.53585267,0.0,0
1.18064250281,1.03065321655e-05,0.89062093794,4605963.45018,2.45281597197e-05,0.0,6282784.82662,686.398165859,655.860347946,65692941.0308,1859.55526713,52336211.6976,66961122.227,4900.84702916,4890.13884588,0.0,0
1.07442526046,1.02037632983e-05,0.956151882063,-32252380.1909,1.59726286877e-05,0.0,5790689.32088,680.069307948,649.143715645,66919951.0426,1727.53717417,34966991.8842,69505836.8593,4459.93925617,4451.73353453,0.0,1
1.07987792063,9.56966744018e-06,1.09910449365,-31194748.6619,1.40916570565e-05,0.0,5809653.01422,680.597486718,649.379831002,66979590.1548,1733.95320739,35325832.4525,69523794.6944,4482.57324854,4474.09241318,0.0,1
1.05938980833,1.05639626464e-05,0.876784864628,-37291890.9076,1.60436987258e-05,0.0,5812091.7874,678.875863456,648.106648096,66964144.8923,1707.6874579,34622513.6661,69855320.4753,4397.52709438,4389.54961795,0.0,1
1.20726357197,1.05315189092e-05,0.94237790714,11243028.1102,2.60154511877e-05,0.0,12461413.1086,687.884704053,657.522219041,65315607.462,1890.69933942,56870687.871,66413772.4931,5011.35108725,5000.05052021,0.0,0
1.14437004546,1.0079615929e-05,1.0817120253,-8602647.64207,1.97227437258e-05,0.0,5600471.8928,684.152456201,653.549287378,66392265.082,1817.76420641,45130708.6005,68365809.5457,4750.2800587,4740.96936867,0.0,1
1.15375343798,1.03722723139e-05,0.740656588564,-5170633.14545,2.72208677411e-05,0.0,5518278.90432,684.884085778,654.254906425,66117181.2833,1829.86044157,46832365.7114,68325038.8821,4789.23052106,4779.77105545,0.0,1
1.16209434252,9.76414873788e-06,1.08085936791,-2936983.42146,2.0696547114e-05,0.0,5545922.08352,685.562280394,654.781909261,66229104.4903,1839.5248247,48605902.064,68475478.7878,4823.8536158,4814.13816121,0.0,1
1.21295921526,1.04024127012e-05,1.02004845037,11832558.5378,2.47935680084e-05,0.0,13059802.4852,688.350273078,657.900001695,65179014.4832,1896.58149623,57377721.8312,66241198.8472,5034.99370254,5023.16640469,0.0,0
1.05042578324,1.03042254463e-05,0.752890352743,-44695034.7953,1.68060610949e-05,0.0,5786767.13252,678.764477334,647.525343115,66874157.4841,1693.50943674,35671911.3377,70356508.8949,4360.31742623,4351.52558559,0.0,1
0.993407744751,9.52338356578e-06,1.27149117146,-95515829.6503,1.13023803352e-05,0.0,5955440.97993,680.111055056,643.908796543,67266152.9922,1616.21836363,70366433.5281,70605285.1598,4123.63554846,4115.35683755,0.0,2
0.973084310541,1.00333875756e-05,1.124728871,-94422626.2735,1.26921320748e-05,0.0,5995112.47688,682.47901777,642.60462732,67367958.3281,1612.4673898,69403914.7273,69636077.1908,4039.27297306,4031.78887826,0.0,2
1.01056758402,1.01304118297e-05,0.94764694558,-83953025.3167,1.41759466167e-05,0.0,5873158.58365,677.717254018,644.993272413,67049614.3509,1639.04440867,60432178.166,70621921.6397,4194.86604127,4186.38522563,0.0,2
0.986361272433,1.04059101583e-05,0.950709489313,-94914281.545,1.39187110363e-05,0.0,5925340.12464,679.257125859,643.451111226,67175889.0156,1608.6067549,69836947.5646,70078351.6142,4094.38564187,4086.37729582,0.0,2
1.07944434429,9.6883405812e-06,0.899711023253,-30931804.5164,1.63880161524e-05,0.0,5792544.20331,680.573777922,649.350873586,66925858.9572,1733.54352122,35372194.5785,69388039.0201,4480.77347315,4472.29936679,0.0,1
1.16467985764,9.75989152569e-06,1.08234242934,-2222702.78102,2.08583106182e-05,0.0,5536769.05057,685.717758625,654.940361526,66203883.2876,1842.75208074,48981252.8926,68302864.6556,4834.58608906,4824.82833545,0.0,1
1.15492598506,9.89529776078e-06,1.03261483032,-5603124.80987,2.07718321831e-05,0.0,5526050.20475,685.066377131,654.275498692,66168388.7077,1829.33442998,46739532.9755,68545327.0837,4794.09776398,4783.97812864,0.0,1
1.0986116136,9.87906513763e-06,0.902381139356,-23363249.1978,1.79141576453e-05,0.0,5729830.53479,681.732226184,650.712062678,66751667.387,1758.76524838,37057076.36,69131782.9543,4560.33680805,4551.56303358,0.0,1
1.21577065932,1.03578824149e-05,0.928157441014,12872392.0908,2.68826323341e-05,0.0,14113056.6547,688.558855196,658.099563081,65264167.2217,1901.24725405,58277479.6046,66461469.952,5046.66400684,5035.34511953,0.0,0
1.15006525816,9.82597961269e-06,1.07142452356,-7621222.86445,2.00756269154e-05,0.0,5592398.85817,684.708435589,653.953095871,66371552.1007,1825.11299947,45811843.2413,68686109.0588,4773.92088662,4764.51898942,0.0,1
1.08244145937,9.91912534519e-06,1.12167464217,-29018582.1823,1.42052636934e-05,0.0,5786048.19804,680.698287555,649.691921338,66902557.9392,1737.3113455,35719396.1373,69374296.2366,4493.21449784,4484.69383226,0.0,1
0.924352985366,1.03000095654e-05,0.684444027854,-92085109.6072,1.55707807468e-05,0.0,6055201.61493,688.92033563,639.459354009,67476153.4247,1599.10054943,67346355.481,67551258.799,3836.98924225,3829.94451775,0.0,2
1.20949169834,1.01810774601e-05,1.17396439062,10769276.9253,2.140002748e-05,0.0,12042527.1348,688.088903647,657.636914388,65328027.2405,1892.4812404,56578192.6709,66490993.726,5020.60003981,5008.83668247,0.0,0
0.946566249414,1.04631794209e-05,1.11067351848,-92994347.629,1.26600649976e-05,0.0,6017632.12552,685.600236923,640.888726448,67406483.049,1604.95152478,68146792.56,68361772.9665,3929.19650132,3921.81205635,0.0,2
1.05092636038,9.66599385884e-06,0.936771402578,-45356730.9969,1.44587642842e-05,0.0,5827246.0271,679.275380743,647.640927659,66983842.9097,1693.96804495,35960470.5159,70664557.4317,4362.39532194,4353.65105286,0.0,2
1.018870284,1.02055764639e-05,1.04129463613,-69131016.7025,1.30692598338e-05,0.0,5892672.29001,677.543280905,645.532448317,67137099.143,1651.79597722,48801681.842,70841799.8621,4229.33054888,4221.35890956,0.0,2
1.13315294642,1.01859587969e-05,0.85892226498,-10991427.8559,2.17978487503e-05,0.0,5562875.34686,683.533416057,652.799141244,66248607.0413,1801.44037379,43665783.3046,67605767.387,4703.71788059,4693.78807166,0.0,1
1.01816025166,9.67911850615e-06,0.781120573865,-77061931.5519,1.52917907072e-05,0.0,5943534.78586,678.120162349,645.504945969,67296031.3681,1652.93933248,54849962.3857,71350090.1473,4226.38320464,4219.21737998,0.0,2
1.17076295481,1.05035162914e-05,1.32495143218,2051533.83824,1.71580482464e-05,0.0,5439109.29264,685.466033969,655.257662535,65819735.6604,1846.14523706,50819061.316,67104399.958,4859.83702542,4848.99437208,0.0,0
1.04930914648,1.03455663584e-05,0.892857598941,-45131251.9684,1.53655020346e-05,0.0,5796791.52917,678.621175199,647.457336738,66903389.5096,1691.922149,35803583.9104,70338170.7985,4355.68226704,4346.90870882,0.0,2
1.21558453258,9.95197578362e-06,1.06722015826,11824167.2286,2.33415186511e-05,0.0,13082094.785,688.704149164,658.060729402,65300422.4639,1900.45245857,57471114.4823,66339891.0193,5045.89139474,5034.11895629,0.0,0
1.04536186129,1.04103781359e-05,0.991701874648,-47220168.6321,1.43330057327e-05,0.0,5815619.66105,678.340297288,647.20693807,66951587.2729,1687.04835357,36494080.585,70297912.4613,4339.29708621,4330.76548097,0.0,2
1.09987713739,1.00094975753e-05,0.763338053295,-20596108.8858,1.89629617772e-05,0.0,5674788.11053,681.822071777,650.796875248,66547024.3161,1758.50509068,38027823.5582,68443701.5508,4565.58999731,4556.00205825,0.0,1
1.12230773326,1.00489968667e-05,1.12266259216,-14389575.5999,1.73582053994e-05,0.0,5676467.75516,682.822999473,652.173270472,66611288.5698,1789.3623901,41794347.7948,68765990.8176,4658.69940076,4649.76631342,0.0,1
1.15574360259,1.01157027963e-05,1.09622297119,-5355912.73371,2.04661405685e-05,0.0,5558649.05418,684.967585091,654.386140509,66278929.7913,1832.11360003,46917391.6643,68541751.4276,4797.49169435,4787.99850101,0.0,1
1.12778282645,1.01860430262e-05,0.776618135605,-12290925.2452,2.24859513876e-05,0.0,5572025.92997,683.34027183,652.518076788,66266774.9218,1794.67834133,42906187.8775,67183108.8205,4681.42651259,4671.58847954,0.0,1
1.13456200083,9.9263767348e-06,1.11714206371,-10066370.5037,1.79078337469e-05,0.0,5610842.52633,683.719631505,652.981329678,66409960.4951,1803.49218483,44505671.9726,67848291.7782,4709.56686545,4699.89667559,0.0,1
1.17188677504,9.93138539276e-06,0.943402046084,832130.438982,2.26404639106e-05,0.0,5445893.99562,686.129938679,655.366045361,65896780.5257,1849.57597804,50407572.3068,67499432.5278,4864.50200319,4853.91653312,0.0,0
1.16898890591,1.03203702981e-05,0.900911081762,1633564.24476,2.32699450051e-05,0.0,5420639.29541,685.70096391,655.158220298,65786816.3528,1844.87452463,50636434.2735,67282344.1175,4852.47294843,4841.77453581,0.0,0
1.17328641217,1.00614564715e-05,0.978768515985,1779786.24077,2.20224389705e-05,0.0,5400136.09314,686.122363999,655.421566442,65745934.8597,1849.60876829,50759375.6311,66982833.1154,4870.31189692,4859.20036409,0.0,0
1.25245966952,9.80116251125e-06,1.03543329387,20008143.7089,2.7081714151e-05,0.0,21743572.3555,691.101397936,660.358632922,64836117.8427,1943.11382458,64124739.3967,65055161.9491,5198.96008818,5186.6766369,0.0,0
1.06106750504,9.79243264661e-06,0.844655604678,-39252865.7717,1.59069370258e-05,0.0,5820257.46558,679.58054708,648.213063248,66979437.8573,1708.88325543,34779200.4119,69896499.2149,4404.49121342,4396.11223002,0.0,1
1.10759075507,9.91453061345e-06,0.90803343596,-18332504.3654,1.83258158884e-05,0.0,5644391.41229,682.258149154,651.262417156,66479395.2631,1767.51181043,39543336.7781,68856947.986,4597.6092243,4587.72407718,0.0,1
1.05537742534,1.03455870033e-05,0.959467570123,-40877221.06,1.48425745018e-05,0.0,5804199.77649,678.817890857,647.814175543,66924535.8329,1700.71416009,34935586.8722,69547056.8264,4380.87169259,4372.3274212,0.0,1
1.01950411657,9.24540227613e-06,0.659179276646,-79517319.5192,1.65985142861e-05,0.0,5950497.3189,678.632007638,645.59128343,67315014.3673,1654.67132447,56819181.1851,71182175.1678,4231.96158788,4224.77667596,0.0,2
1.11046655269,1.02152021885e-05,0.916110809559,-17070931.9943,1.88683540674e-05,0.0,5654125.31692,682.141015483,651.424950373,66522952.1405,1772.32766495,40207042.4548,69111483.0384,4609.54666022,4600.19726142,0.0,1
1.08385103923,9.61960274904e-06,0.728684715949,-28926435.1039,1.87922888809e-05,0.0,5768578.81099,680.967584479,649.644701621,66851931.7903,1739.26290816,35752180.2678,69397313.2054,4499.06566384,4490.42625242,0.0,1
1.14571331211,9.88744199559e-06,0.887823238206,-8194584.24258,2.22257673e-05,0.0,5534376.74189,684.413211129,653.534458738,66172175.5439,1817.51140411,45356573.2017,68419069.4592,4755.85595857,4745.6878336,0.0,1
1.22988327803,1.00183500054e-05,1.21182361828,15121751.8302,2.22562174164e-05,0.0,16533004.0269,689.336081166,658.917399911,65268562.3899,1917.71641684,60231547.202,66858983.9046,5105.2454871,5093.63849314,0.0,0
1.195232603,1.02489498969e-05,1.18311071339,7224273.46648,2.03628474711e-05,0.0,8662946.79617,687.272507996,656.809216842,65435242.5721,1875.04307443,53836255.0567,66496698.7578,4961.41053505,4949.70224537,0.0,0
1.13098880751,1.00054087179e-05,0.827731926453,-11547443.8416,2.18617102423e-05,0.0,5575915.80717,683.52319001,652.659551713,66299635.2356,1798.58373276,43434415.4165,67455968.923,4694.73453997,4684.84265084,0.0,1
1.02159407704,1.01371148043e-05,0.861048388356,-68987924.881,1.48612469576e-05,0.0,5861974.39152,677.763315808,645.697087683,67053919.1828,1654.848713,48709211.8715,70694266.3686,4240.63701379,4232.31127022,0.0,2
0.992068348239,1.00575929113e-05,0.798223764451,-95227643.5693,1.51242421979e-05,0.0,5914652.70636,679.278005648,643.818111095,67145768.6297,1614.48513556,70112843.2989,70364207.5393,4118.07571354,4109.89617546,0.0,2
1.13940140065,9.88516583225e-06,0.928678173726,-10111983.4356,2.11254191056e-05,0.0,5579251.67319,684.174662917,653.292431413,66317954.2203,1810.29978539,44437667.8064,67938280.7331,4729.6552141,4719.90104735,0.0,1
0.964580665364,9.98114153184e-06,0.966098590251,-94101653.6278,1.41234116639e-05,0.0,6055455.82705,684.12840149,642.07100895,67554294.7662,1615.38205771,69121329.8853,69348133.2127,4003.97434193,3997.54630351,0.0,2
1.03812950254,9.92561271092e-06,1.02348417794,-53472948.9786,1.35431067513e-05,0.0,5844191.27505,678.379035042,646.730716307,67024964.3614,1676.64116568,39080854.4466,71248632.4632,4309.27556504,4300.59711686,0.0,2
1.29537428477,1.0166573316e-05,0.909986772736,27531783.0297,3.56131648719e-05,0.0,28938332.5242,693.847780878,663.037105971,63849795.2704,1989.52233927,68527429.6137,69681466.9628,5377.09865608,5363.56487712,0.0,0
1.15599322931,1.00507811207e-05,0.82993592716,-5350411.84694,2.51464568866e-05,0.0,5535570.47786,685.170955837,654.402298023,66206987.1649,1832.76506432,46927176.3393,68480638.9024,4798.52789487,4789.03067983,0.0,1
1.21376677954,9.51830353421e-06,0.849573254035,11005104.7026,2.70663813139e-05,0.0,12335546.5996,688.99181584,657.90612944,65251907.6007,1898.64008445,56886593.1534,66662394.9899,5038.34590187,5026.35981335,0.0,0
1.09024204857,1.00805982851e-05,0.884457873764,-25732734.5277,1.76561254168e-05,0.0,5741598.99774,681.082023682,650.145864719,66779302.7509,1747.69780776,36275181.8264,69202959.8409,4525.59474361,4516.95240858,0.0,1
1.15151770223,1.04476628903e-05,0.810845626732,-3993715.02949,2.3516459866e-05,0.0,5445894.63926,684.705059706,654.080675787,65871868.9848,1822.97013847,47255082.5647,68008055.3305,4779.94998196,4769.24012951,0.0,1
0.99359080977,1.0114406813e-05,0.6458313031,-95212713.8598,1.67781823029e-05,0.0,5899967.74404,679.16979285,643.917076379,67107037.9428,1616.74840795,70099833.0779,70347926.7253,4124.39545136,4116.27134858,0.0,2
1.13439979304,9.86232210018e-06,0.773473698038,-11159120.0729,2.2423565282e-05,0.0,5532208.30424,684.024972224,652.951341163,66151097.6961,1802.06448359,43648012.0948,67573065.2561,4708.89354091,4698.44397373,0.0,1
1.18120050543,9.80751971756e-06,1.0508489734,3479049.77942,2.09434293351e-05,0.0,5622656.45145,686.644830217,655.921711791,65867523.0655,1860.73532315,51979558.1144,67177019.452,4903.16329804,4892.45679969,0.0,0
1.08353408991,9.86673158737e-06,1.08566660953,-28781194.2391,1.4643345297e-05,0.0,5782894.99634,680.816848721,649.767053818,66894014.2421,1738.76517524,35756034.2179,69379080.689,4497.75000722,4489.21234195,0.0,1
1.11175245813,9.61280328757e-06,0.969484064553,-18341915.9006,1.8029602911e-05,0.0,5626978.47001,682.709640816,651.514348969,66428822.6872,1772.28935987,39617646.4297,68946034.9908,4614.8844537,4604.61732347,0.0,1
1.10275459996,9.8467877101e-06,0.717760131388,-22049772.255,2.09826680854e-05,0.0,5703279.07503,682.122901695,651.002215318,66677082.5119,1764.37928785,37527495.7032,68476293.7028,4577.53434443,4568.69462179,0.0,1
1.13765419167,1.02589720671e-05,0.976276008718,-10203499.4487,2.11279158912e-05,0.0,5604736.03062,683.743867843,653.175451103,66401355.1083,1809.27881588,44150722.0968,67969162.1574,4722.40254962,4713.22549521,0.0,1
1.13611966651,9.31289330717e-06,1.11428351402,-11443358.8263,1.73668520567e-05,0.0,5604743.72052,684.253642424,653.070611894,66398785.5309,1804.75626412,43492177.0188,67628691.0813,4716.03273568,4705.83938399,0.0,1
1.12856961878,9.82934071957e-06,0.861414816844,-12738425.56,2.09862034728e-05,0.0,5615785.60831,683.535078469,652.57944234,66414891.262,1796.40233868,42947256.5038,67790358.045,4684.69248756,4675.14463809,0.0,1
1.09867020279,1.00263840871e-05,1.11612422828,-23160889.2849,1.54760144815e-05,0.0,5736527.8868,681.553825547,650.730709563,66762664.6703,1758.51460614,37111190.0099,68989326.8828,4560.58001178,4551.80479081,0.0,1
1.24353654954,9.76398812702e-06,1.10951161753,18079710.0582,2.46381366341e-05,0.0,19667882.9817,690.518804923,659.830642075,65016596.6556,1933.15309083,62571769.749,67209738.7792,5161.92021714,5149.85230418,0.0,0
1.05491337157,9.59585098407e-06,0.988354489992,-43489625.4802,1.41037349501e-05,0.0,5826660.93559,679.383899751,647.809814263,66989179.7459,1699.22995746,35471983.2571,71328585.6062,4378.94540539,4370.136074,0.0,2
1.10854787377,9.75070228858e-06,0.836541298614,-18616011.2827,1.90052310613e-05,0.0,5675638.89059,682.434198728,651.341714459,66582262.7073,1770.308478,39480193.5835,68834304.8589,4601.58222402,4592.16512104,0.0,1
1.23489881173,1.00887432825e-05,0.979925129653,16252586.5513,2.74654691914e-05,0.0,17792203.2982,689.948456378,659.258420717,64852949.7559,1921.67301034,61067781.3795,66684672.752,5126.06496749,5113.59621168,0.0,0
1.11676409961,9.97959431104e-06,1.11369148063,-15675756.377,1.66248142281e-05,0.0,5677255.99813,682.535577928,651.795463072,66593799.8072,1781.19415907,40944384.3556,69412272.5978,4635.68777748,4626.4343397,0.0,1
1.17301946416,1.00398042902e-05,0.851139052564,2046484.59747,2.41759097897e-05,0.0,5421261.51565,686.154747631,655.419091944,65812140.1395,1850.49030305,50979387.4102,67079568.6621,4869.20379573,4858.52466385,0.0,0
1.04634094927,9.54855002892e-06,1.08427212281,-50136669.2788,1.30871368139e-05,0.0,5844069.76117,679.027253082,647.262160183,67035191.7996,1687.43639246,37620061.8474,71203025.9159,4343.36128042,4334.54806625,0.0,2
0.96065490838,1.00347857913e-05,1.15579177227,-93969154.0036,1.23052487003e-05,0.0,6072564.46237,684.385153025,641.818031439,67602320.8117,1613.448328,69004627.6268,69229469.4322,3987.67852469,3981.30361095,0.0,2
1.19096455979,1.01378685947e-05,0.794167011304,6038794.17613,2.73509846871e-05,0.0,7566931.30796,687.381673102,656.535641783,65356251.1481,1870.85087283,53072554.1433,66526367.751,4943.69388769,4932.06295039,0.0,0
0.976010935726,1.00699796698e-05,0.960164450078,-94628068.5439,1.38268521082e-05,0.0,6013327.12973,681.784467915,642.802218552,67432789.3722,1613.21773149,69584610.105,69819490.2103,4051.4213942,4044.5097959,0.0,2
1.1053367879,1.02553106173e-05,0.893214021769,-18296617.0511,1.85565139017e-05,0.0,5640112.46391,681.896025686,651.118248163,66460204.0812,1764.77075714,39376336.8864,68762169.2701,4588.25300657,4578.5023332,0.0,1
1.06932939952,9.8432222385e-06,0.813013025099,-35264883.8666,1.6796804198e-05,0.0,5795362.69404,680.002769221,648.746950762,66919959.7023,1719.81873326,34716181.0821,70063961.7499,4438.78633741,4430.27963844,0.0,1
1.19180924824,9.81399388472e-06,1.04671347413,5752797.54073,2.17633363896e-05,0.0,7338329.11003,687.361797609,656.576124392,65607607.8241,1872.26449473,53203660.6501,66822873.542,4947.20018944,4935.75950304,0.0,0
1.21594424558,1.00375298037e-05,0.839499077604,12104735.7898,2.81092312438e-05,0.0,13365010.8323,688.875447128,658.091615093,65153824.5775,1901.1379808,57648716.5924,66231415.7903,5047.3845634,5035.6055211,0.0,0
1.04502930535,1.01865305645e-05,0.830917373526,-48031700.3815,1.5712682526e-05,0.0,5809741.13764,678.570257469,647.186689755,66931521.3095,1686.24814909,36781772.8239,70516510.8308,4337.91664651,4329.21301924,0.0,2
1.18364420066,1.01594376037e-05,0.666614369469,4907997.09209,3.00580645766e-05,0.0,6539785.41211,686.880748248,656.054570667,65597626.48,1863.89627624,52566461.9949,66844942.1361,4913.30707694,4902.54419889,0.0,0
0.995899730783,1.03425345563e-05,0.978745751666,-95320991.6882,1.38671607274e-05,0.0,5905019.28575,678.252746364,644.060991705,67129656.2075,1619.68612643,70195120.3468,70566862.9371,4133.97978248,4125.81856836,0.0,2
1.01913621541,9.80623127139e-06,0.809109982092,-74623056.1744,1.50363758927e-05,0.0,5937403.36753,677.972536206,645.566426294,67282006.9866,1654.23718925,52942426.9482,70937946.2266,4230.43443017,4223.25474579,0.0,2
1.01269940793,1.05962108089e-05,0.901423087685,-74992494.0993,1.42956031913e-05,0.0,5903197.03596,677.053155456,645.138340122,67150802.1743,1644.49056885,53207225.0546,70476778.4275,4203.71524232,4196.27663097,0.0,2
1.09971596824,9.76892701666e-06,0.962885955551,-21727909.5233,1.69147611336e-05,0.0,5664296.41061,681.903535651,650.77423946,66526428.7481,1756.74500813,38011853.7625,68647899.5013,4564.92098416,4554.88990845,0.0,1
1.15090342372,1.01639639854e-05,0.828631845705,-6537792.97269,2.47689275466e-05,0.0,5550271.93007,684.713484236,654.034286908,66249326.7738,1826.26109676,46229068.4729,68615113.8102,4777.40011186,4767.98644376,0.0,1
1.14273024507,1.04229812645e-05,0.632964465911,-7110522.01725,2.82510445966e-05,0.0,5536020.1965,684.103193635,653.4590647,66172524.2204,1815.48782253,45941921.2746,68343421.1766,4743.47324729,4734.11210922,0.0,1
1.0645183613,9.74235374412e-06,0.927127686287,-37872596.1017,1.51863837614e-05,0.0,5818974.88528,679.767779282,648.434197146,66981323.8058,1713.40248132,34720163.4696,70129329.0665,4418.81571776,4410.38287339,0.0,1
0.967489016465,1.02193621544e-05,0.812089249227,-94064602.9064,1.51966243788e-05,0.0,6016989.24321,683.212143362,642.252064165,67442945.1481,1613.49464665,69088658.1989,69316817.5691,4016.04690735,4009.28447766,0.0,2
1.01963286961,9.95939738774e-06,0.899647707948,-72690839.1479,1.4250547396e-05,0.0,5934060.99389,677.791908667,645.598390954,67276237.6048,1654.90176877,51458979.961,70937077.0173,4232.49604175,4225.30929998,0.0,2
0.97958409783,1.01980556743e-05,0.795348753721,-94942889.2147,1.46103632147e-05,0.0,6011506.79364,680.415303648,643.036436489,67428714.5101,1610.41271779,69862083.5081,70099781.7133,4066.25359009,4059.60962735,0.0,2
1.15524219096,9.84075000742e-06,0.714890944625,-5695163.11888,2.71011025113e-05,0.0,5532720.05208,685.263684834,654.308540427,66186092.7426,1831.8252602,46852443.6265,68585507.0919,4795.41033467,4785.8307043,0.0,1
1.08835722943,9.86214227268e-06,1.14705131503,-27112898.1342,1.42751562946e-05,0.0,5774184.76446,681.05651433,650.062905737,66874333.8,1745.0304916,36055952.0049,69392872.8085,4517.77085936,4509.15798746,0.0,1
1.09674588266,9.51384856122e-06,0.913059966168,-24853556.2723,1.72309675874e-05,0.0,5746623.44231,681.818573945,650.54537537,66802319.2159,1756.00097828,36680831.2005,69319111.4998,4552.59215892,4543.74916543,0.0,1
1.19304422363,9.89671751069e-06,0.703952965268,6364772.59867,2.93175604797e-05,0.0,7900583.50638,687.744936986,656.672191732,65337092.7977,1873.74193661,53384379.8479,66541901.4001,4952.32657229,4940.64142102,0.0,0
0.935852551407,9.82978799356e-06,1.27816162548,-92737905.3971,1.1487252442e-05,0.0,6077804.34759,688.74896591,640.202490243,67560286.1612,1608.26235301,67920914.4491,68130909.5313,3884.72394089,3877.50403268,0.0,2
0.910120954835,1.03851599284e-05,1.17324303999,-91536170.8887,1.1478370598e-05,0.0,6139876.36125,690.263482241,638.549272452,67722377.0484,1595.61677787,66863145.3902,67722377.0484,3777.91208352,3771.65060881,0.0,2
1.16234700575,9.75695564388e-06,1.13253478522,-1039501.15444,1.83358259621e-05,0.0,5507184.17495,685.50981754,654.77328021,66077536.9438,1836.98193402,49603653.0424,68182636.1354,4824.90242087,4814.40579638,0.0,1
0.98902986451,1.03770971264e-05,0.796897627268,-95002970.5554,1.50488257252e-05,0.0,5912543.45364,679.017786976,643.620345755,67140543.0324,1610.800701,69915136.0786,70159944.456,4105.46296758,4097.41217117,0.0,2
0.990026043826,1.06125850149e-05,1.08061057961,-95048237.5277,1.27108330233e-05,0.0,5915738.71478,678.198078226,643.68299727,67157702.4857,1611.78603792,69954890.9427,70208033.4223,4109.59810792,4101.53116708,0.0,2
1.10435535604,1.02694251452e-05,0.90999025709,-18902256.1871,1.85637475522e-05,0.0,5621587.66791,681.840277012,651.048571631,66405543.3333,1762.56753867,39250466.4007,68693874.6306,4584.17908292,4574.16093945,0.0,1
1.2091914079,9.82773569479e-06,0.986321676645,10335737.0738,2.43765944381e-05,0.0,11681985.617,688.421643382,657.622035327,65302284.0953,1892.56052053,56305131.5401,67051066.9594,5019.35353419,5007.4798574,0.0,0
1.07493172838,1.03032743641e-05,1.02297475616,-30515711.2106,1.52215069943e-05,0.0,5776549.25514,680.012564466,649.18268769,66861892.4578,1727.18596089,35270710.2608,69251993.8361,4462.04160451,4453.54064248,0.0,1
1.0633153826,1.01040875916e-05,0.877788632477,-36185758.4415,1.58825806487e-05,0.0,5805155.56849,679.434982981,648.356952622,66941594.5704,1711.69488118,34628842.5,70137714.403,4413.82215317,4405.40839759,0.0,1
1.116166705,1.01726669915e-05,1.00216807314,-15403708.0497,1.81564478279e-05,0.0,5640769.68983,682.436003138,651.743241067,66483667.4409,1779.53617694,41099700.8805,69162236.7948,4633.20799245,4623.66407551,0.0,1
1.04816642742,9.78497244867e-06,0.999683305796,-47157358.0311,1.4058423551e-05,0.0,5831592.08875,678.926215456,647.386596385,66994036.6576,1690.14401685,36605623.577,70470870.3327,4350.93884022,4342.24116784,0.0,2
1.22764256008,1.00522749178e-05,0.745190200547,14887900.4464,3.20093465298e-05,0.0,16280650.6761,689.543454458,658.773961914,65084913.8083,1915.86392394,59969257.477,66613110.5086,5095.94426689,5084.37752088,0.0,0
1.02688811215,9.80261277761e-06,1.07610158601,-65292397.2553,1.28556511394e-05,0.0,5930517.61785,678.036760043,646.057218631,67279829.9357,1664.44392684,46162523.7984,71017520.8201,4262.61255353,4255.32237887,0.0,2
1.09804987653,1.00753848677e-05,1.17294884701,-23251243.3059,1.48128162034e-05,0.0,5739712.09734,681.459224553,650.68695686,66771026.388,1757.64183408,37066307.0103,69042533.6621,4558.00503748,4549.24021414,0.0,1
1.01834866358,1.02386955487e-05,0.94138217001,-71152182.0526,1.41047023258e-05,0.0,5869821.62979,677.591133399,645.492260636,67070350.0929,1650.48779908,50285651.7864,70862535.1974,4227.16530252,4218.89149574,0.0,2
1.07477041516,1.02664794688e-05,0.940474823018,-31166447.7082,1.60962876221e-05,0.0,5784203.44734,680.056919162,649.172097536,66894680.8994,1727.7236986,35117081.9758,69366518.6375,4461.37199333,4453.06463209,0.0,1
1.10396912482,9.99608319426e-06,0.90346438507,-21375170.0203,1.84901849406e-05,0.0,5708933.57918,681.994278699,651.076921899,66684987.3637,1765.742793,37818286.5858,68626838.539,4582.57583713,4573.71757136,0.0,1
1.11536885771,1.00970418904e-05,0.929170328598,-15754247.996,1.89324879065e-05,0.0,5641427.29236,682.470461972,651.693648393,66483620.4269,1778.59839444,40860669.7111,69347354.5029,4629.89612835,4620.36548107,0.0,1
1.124219773,1.01727781845e-05,0.807824482807,-13298495.8467,2.15680462466e-05,0.0,5588748.75957,683.094855087,652.279478017,66313276.1322,1790.06062045,42452929.9351,67621830.2438,4666.63627772,4656.85841879,0.0,1
1.24072238039,9.55818917524e-06,0.759894715968,17586803.0581,3.21567252983e-05,0.0,19116366.0239,690.655920045,659.62949232,64995613.9857,1931.46457309,62209385.1238,66998558.942,5150.238601,5138.45788015,0.0,0
1.09643422222,1.05135152747e-05,1.03985969377,-22586112.3185,1.64691974888e-05,0.0,5700511.875,681.148299335,650.583353304,66638967.1935,1754.96458121,37214604.2674,68383075.9077,4551.29845644,4542.26460808,0.0,1
1.02274660677,9.89666387467e-06,0.828459068007,-69410951.4807,1.49344599788e-05,0.0,5925376.4184,677.921340225,645.791377892,67256139.7644,1659.06399512,49036717.5302,70878231.5932,4245.4211647,4238.19010972,0.0,2
1.04918069082,9.82265875213e-06,1.16340978655,-45174033.4335,1.240982375e-05,0.0,5855803.32486,678.843473867,647.452287188,67067083.8532,1692.23149555,35985124.8437,70552741.6729,4355.14904759,4346.77460813,0.0,2
0.989609296474,1.0275067471e-05,1.05609474514,-95099083.4865,1.31052945788e-05,0.0,5928245.2193,679.09936413,643.660205016,67189949.0911,1611.52856124,69999623.2264,70245630.2151,4107.86818966,4099.80812068,0.0,2
1.02141665474,9.93704242329e-06,1.10279896615,-70785375.9298,1.25253564968e-05,0.0,5940146.40413,677.77040543,645.707568005,67299453.2081,1657.14471754,50047568.9489,70819089.9182,4239.90053383,4232.68842029,0.0,2
1.1971345219,9.99311455291e-06,0.713551646505,7860294.12595,2.966130311e-05,0.0,9328757.91017,687.869291348,656.942691052,65374835.0388,1879.36835883,54367948.3701,66500460.7333,4969.30540041,4957.98781845,0.0,0
0.94698938872,1.03218597645e-05,1.15933124839,-93049580.4873,1.23440989643e-05,0.0,6025021.59398,685.95834032,640.916893758,67427594.2162,1606.71081479,68195408.8185,68410487.3899,3930.95295258,3923.56197246,0.0,2
1.10719446031,1.0189538028e-05,0.845454043149,-18099576.8427,1.94439143693e-05,0.0,5661036.44248,682.027214737,651.240817405,66537039.7714,1768.28594051,39681112.4061,68869940.4394,4595.96420475,4586.66816917,0.0,1
1.16730711364,1.03261930737e-05,0.859623056913,-203506.946155,2.54364823458e-05,0.0,5427820.81866,685.711973221,655.074260374,65841559.5898,1844.16116093,49539030.3701,67432288.657,4845.49182872,4835.05632215,0.0,0
1.06196543908,9.99026189466e-06,0.741560815455,-38026799.9765,1.71992841598e-05,0.0,5804085.71081,679.517181434,648.268235988,66935469.8046,1710.18914162,34666137.8907,69962801.431,4408.21853762,4399.82683334,0.0,1
1.16875913468,1.04821758292e-05,0.904323113885,1896263.35661,2.33365038916e-05,0.0,5404302.65715,685.600119212,655.139469846,65732246.7867,1844.13301241,50706869.0756,67000300.7505,4851.51916806,4840.71437766,0.0,0
1.25937465116,9.95223200451e-06,1.02952841356,21561606.79,2.8780026514e-05,0.0,23450706.9366,691.470130987,660.812424645,64784497.7398,1951.61302534,65366639.5856,66189700.7371,5227.66417697,5215.5561701,0.0,0
1.03621834634,1.01042699498e-05,0.866307406201,-53913780.1446,1.4963684142e-05,0.0,5831914.55928,678.217320335,646.616590614,66986280.724,1674.23558451,39301861.9366,71106465.1789,4301.34235566,4292.69379761,0.0,2
0.991636656912,1.02624767401e-05,0.829436267388,-95143123.0813,1.49419339963e-05,0.0,5911356.85199,678.953065374,643.790041641,67141150.2988,1614.07803718,70038445.6829,70281234.0633,4116.28376284,4108.19101567,0.0,2
1.00276162626,1.02340320141e-05,1.03124230901,-94038547.5211,1.34998731266e-05,0.0,5894922.092,677.897067868,644.500649526,67108101.6406,1628.77200205,69076513.3822,70665662.8555,4162.46351061,4154.19415424,0.0,2
1.13636008049,9.61031033001e-06,0.743937772908,-10979812.7603,2.35488057945e-05,0.0,5593336.44272,684.24780374,653.102919162,66356982.8741,1806.857409,43818552.2881,67674926.8585,4717.03069411,4707.43199752,0.0,1
0.99282126443,1.00199126613e-05,0.830438274216,-95273734.4115,1.49170831296e-05,0.0,5915794.31456,679.257222346,643.866870691,67150005.2301,1615.42807815,70153325.1883,70401333.5508,4121.20106865,4113.0091544,0.0,2
0.955263650675,9.78225767053e-06,1.14487930738,-93804652.8128,1.24469080912e-05,0.0,6095974.32452,685.816045271,641.472544176,67658297.4602,1614.57900783,68859769.0404,69081995.9879,3965.29941395,3958.99699458,0.0,2
1.02825737395,9.77843918412e-06,0.67199589571,-63691700.2707,1.65284363925e-05,0.0,5907550.94808,678.2191759,646.131714999,67212785.6417,1666.49277701,45081018.7682,70908989.7779,4268.29635927,4260.98659341,0.0,2
1.11641138615,9.59454127065e-06,1.1498673469,-16446936.047,1.56802993908e-05,0.0,5670459.65097,682.81817118,651.79521505,66566224.9025,1779.63909191,40560752.4909,69405639.55,4634.22366391,4624.4785916,0.0,1
1.14024324969,9.95469629338e-06,1.0986157719,-8996862.8295,1.89710897903e-05,0.0,5613907.74808,684.010384087,653.333667646,66437086.5979,1811.93151542,45217560.8575,68207247.2276,4733.14972946,4723.80221786,0.0,1
1.12035677292,1.01745989237e-05,0.777048583405,-14032996.0957,2.16373936488e-05,0.0,5598003.36666,682.846714605,652.024903938,66352855.9228,1784.96276985,41882077.6209,68320384.3376,4650.60096439,4640.88860287,0.0,1
1.10174544243,1.01480051968e-05,1.12646866254,-21928679.4961,1.56725909865e-05,0.0,5722897.59864,681.660137494,650.93616624,66729370.4524,1762.48688282,37574642.6069,68578688.5831,4573.34533153,4564.52228732,0.0,1
1.26797605287,9.85525945597e-06,0.834085652042,23222677.726,3.4502196032e-05,0.0,25178910.8624,692.26125371,661.372277268,64568534.2646,1961.9383676,66490758.6059,67466779.5238,5263.36859546,5251.11137068,0.0,0
1.00032704763,9.97311910315e-06,1.03868532961,-95660785.2575,1.3251470897e-05,0.0,5910235.6787,678.487458047,644.345514118,67145650.0115,1625.28110334,70494386.2282,70765238.8318,4152.35757471,4144.04640705,0.0,2
1.0360684244,1.00936078952e-05,0.990637084087,-54139090.8574,1.38482959293e-05,0.0,5840094.21337,678.177933903,646.612426052,67011019.3969,1673.95067356,39412438.8344,71097472.6139,4300.72002968,4292.07392115,0.0,2
1.14179772312,1.01208890007e-05,0.735486850293,-8668150.32617,2.48056298129e-05,0.0,5520248.29646,684.13453277,653.295663383,66128008.3989,1812.64488909,44929999.9152,68150738.0649,4739.60234867,4729.5012854,0.0,1
1.18026851435,1.02665282041e-05,0.932032350214,4422349.81391,2.36490167941e-05,0.0,6174622.72382,686.367311701,655.83569249,65718614.028,1859.0816561,52266480.6125,66994543.6053,4899.29460307,4888.59292432,0.0,0
1.02779137575,9.98698487271e-06,0.839067130375,-62222392.2287,1.49721404823e-05,0.0,5909369.6806,677.959130198,646.110990712,67218120.3806,1665.80241612,44075952.216,70935908.6526,4266.36200074,4259.05890483,0.0,2
0.995837021745,1.01239161057e-05,0.940798645824,-95361165.6951,1.42641887307e-05,0.0,5911485.6146,678.760209119,644.059239829,67146319.4248,1619.54354104,70230428.8573,70562047.4463,4133.71947726,4125.55927197,0.0,2
1.10567857178,1.00616036074e-05,1.01385421952,-20753174.5062,1.73116604454e-05,0.0,5708741.48071,681.990356463,651.175393053,66691095.3622,1767.85519203,38099352.131,68730004.287,4589.67175146,4580.78645722,0.0,1
0.982561997081,9.72922295065e-06,1.01740762564,-94982481.5964,1.36017682481e-05,0.0,6014134.68356,681.755607949,643.225617029,67439521.2236,1617.96969969,69896612.635,70135859.1484,4078.61484988,4071.60696349,0.0,2
1.1207275713,9.8673509357e-06,1.1174703668,-14773240.812,1.67430909803e-05,0.0,5619880.88666,682.907401537,652.031811789,66410951.4126,1784.24171153,41492007.7765,68493067.7864,4652.14014847,4642.02684591,0.0,1
1.0884015753,9.82204879585e-06,1.0832667528,-27208067.2256,1.49736189604e-05,0.0,5771540.68553,681.113257125,650.066114013,66865862.0791,1745.13656889,36045649.9671,69393963.7884,4517.95493907,4509.34137443,0.0,1
1.20904997044,9.82496429122e-06,1.05663391929,10347322.7409,2.29926338252e-05,0.0,11673567.8009,688.356316404,657.613288893,65335940.867,1892.21548017,56308159.797,67093314.8203,5018.7664273,5006.89511908,0.0,0
1.14060370065,9.77352859802e-06,0.959719959845,-8903274.64779,2.06012623693e-05,0.0,5590125.83146,684.242723925,653.358296003,66356846.2988,1811.73799271,45328162.829,68185297.9078,4734.6459614,4724.98042361,0.0,1
1.10774558915,1.03140389812e-05,1.01703989291,-17719509.8146,1.75627373332e-05,0.0,5612691.64092,681.944599211,651.243095933,66380476.7589,1766.67512482,39747010.0583,68867900.9918,4598.25194056,4588.07987429,0.0,1
1.08499348044,9.56147810559e-06,1.0668613024,-29207218.5588,1.47760035004e-05,0.0,5794681.00739,680.925107215,649.724243781,66939008.8014,1740.69317471,35816730.3541,69476250.6996,4503.80793731,4495.24679976,0.0,1
1.12242376052,9.8211030892e-06,0.917048836409,-14221447.6423,1.96307667416e-05,0.0,5591395.53824,683.173802086,652.141066655,66335859.0467,1786.44893052,41710191.6036,68366396.5921,4659.18102992,4648.94069325,0.0,1
1.16320997172,1.00029980415e-05,0.842971115883,-680891.957993,2.35215074407e-05,0.0,5426307.8332,685.653231675,654.809787276,65831043.3898,1837.38633135,49423568.3845,67673149.814,4828.48459261,4817.55377269,0.0,0
1.17482938719,9.72108279261e-06,1.14596060099,1793665.85771,1.8849168812e-05,0.0,5440982.44186,686.294727153,655.534803269,65889812.9792,1851.69901098,51085961.6323,67141375.7768,4876.71678623,4865.68364673,0.0,0
1.04787695681,9.76539778901e-06,0.881512603372,-47340774.5172,1.51412925972e-05,0.0,5825841.90273,678.976006167,647.369221354,66975632.9782,1689.83661457,36567775.7672,70541400.4324,4349.73724772,4341.04428081,0.0,2
1.18133855283,9.80188053628e-06,0.889692889492,3307804.76257,2.3844527797e-05,0.0,5443982.60834,686.82172342,655.921583909,65697796.2676,1860.1389724,51773159.1481,66970244.2798,4903.7363328,4892.59815469,0.0,0
1.25799236421,1.02343062825e-05,1.11676214623,21142534.4598,2.734787559e-05,0.0,23072305.0618,691.247126439,660.721351887,64644707.117,1948.36165752,64967558.004,65787394.0704,5221.92630384,5209.37539395,0.0,0
1.03701448374,9.66645560175e-06,1.06847942237,-56257257.4145,1.3236591478e-05,0.0,5848950.7313,678.566462865,646.677950613,67036649.7436,1674.48320222,40523804.9925,71068677.2274,4304.647122,4295.81443024,0.0,2
0.950913435616,9.96806498282e-06,1.13341295494,-93588746.8764,1.23500394991e-05,0.0,6098255.20017,685.827872998,641.191254994,67660598.2018,1611.19144694,68669664.5606,68889743.0499,3947.24167124,3940.99760741,0.0,2
1.13622942926,1.00502649387e-05,0.792213980793,-11742497.5236,2.3407981433e-05,0.0,5509276.04646,684.064115894,653.067405528,66099474.1479,1804.61012759,43358509.7882,67503272.8444,4716.48836086,4705.99290968,0.0,1
1.14474447173,1.03062369855e-05,1.07773502374,-7626459.12849,1.92750973518e-05,0.0,5529719.61094,684.103992022,653.565947894,66156153.8512,1815.61367112,45540047.991,68485080.6756,4751.83430215,4741.59872189,0.0,1
1.03469338655,9.8444773884e-06,0.873134460664,-57890404.6685,1.48919473225e-05,0.0,5899018.59681,678.311940157,646.549027924,67197912.8875,1674.9847131,41524673.9683,71093713.1541,4295.01224757,4287.61009685,0.0,2
1.07391686847,1.01326080714e-05,0.966038695206,-31313023.9806,1.55663562699e-05,0.0,5782257.38315,679.904934961,648.977186334,66883369.0619,1725.55872981,35187737.0558,69466295.458,4457.82892102,4449.25044095,0.0,1
1.05654346104,1.07226536595e-05,1.13715004365,-38708469.9352,1.34840684429e-05,0.0,5807704.39321,678.538570542,647.913813286,66952496.5022,1702.77373412,34709042.5527,69730471.5642,4385.71190678,4377.42418888,0.0,1
1.09237300655,1.00305212775e-05,0.772940411445,-25149699.241,1.93123972338e-05,0.0,5728549.41013,681.276187504,650.266958683,66743770.2158,1750.58542527,36452265.473,69121858.8548,4534.44035019,4525.76465486,0.0,1
1.04937139732,9.95186982397e-06,0.926431684119,-45746956.5892,1.48282217381e-05,0.0,5817874.05387,678.877071256,647.462116063,66958288.3444,1691.83383499,36197437.8284,70538805.1677,4355.94067028,4347.22339954,0.0,2
1.13235653738,9.87618683655e-06,1.00531070304,-11488487.1152,1.93697499764e-05,0.0,5610888.65778,683.68736289,652.833306348,66404401.7509,1801.05741057,43512289.4227,67555091.7744,4700.41198666,4690.77597532,0.0,1
1.00791734424,9.79711649452e-06,0.985845040848,-88881734.1542,1.34261620888e-05,0.0,5973742.57729,677.99011609,644.848239599,67355961.4773,1639.04641552,64641122.6383,70946943.6305,4183.86489594,4176.84384076,0.0,2
1.1921069558,9.94214401611e-06,1.02588330231,5874066.62174,2.24367848067e-05,0.0,7423638.69631,687.361149078,656.600249577,65508454.4531,1871.99149158,53143805.1211,66735042.5214,4948.43597353,4936.76403811,0.0,0
1.05661010153,1.00249669378e-05,1.08215197881,-40496037.9288,1.33135090897e-05,0.0,5836858.84101,679.048942198,647.902135372,67026084.2938,1702.82503802,34928112.3995,69957335.1368,4385.98853145,4377.6789099,0.0,1
1.06964307195,9.94834815879e-06,1.03099249603,-33922066.9441,1.4480217126e-05,0.0,5805412.34511,679.83199967,648.761413929,66941756.8282,1719.88747544,34852991.0867,69934402.44,4440.08839166,4431.57559322,0.0,1
1.09058125346,1.00696416265e-05,1.07999348158,-25699266.0544,1.53276233899e-05,0.0,5754967.65789,681.020593185,650.165351935,66821503.2299,1747.97999317,36306674.6032,69240689.8053,4527.00278311,4518.35514132,0.0,1
1.14308152345,1.01727217686e-05,1.03554892296,-8396263.67697,1.99317579776e-05,0.0,5545064.90615,683.981338123,653.361587875,66207257.8241,1813.84787234,45201526.1942,68354801.6081,4744.93140384,4734.80837245,0.0,1
1.17871126541,9.86248276464e-06,1.11009664379,2733082.79357,1.9829000429e-05,0.0,5414518.37464,686.470894861,655.760826849,65798434.1487,1856.5172743,51433267.7036,67033864.9529,4892.83046272,4881.72621166,0.0,0
1.24063521536,1.00451755225e-05,0.930167341568,17541780.0544,2.87299760938e-05,0.0,19119027.0757,690.379001397,659.646112496,64855632.7007,1929.37684922,62097752.6182,66944149.2062,5149.87677896,5137.63712155,0.0,0
1.15155447589,1.02681955035e-05,1.02315112306,-4242623.70015,1.98067967234e-05,0.0,5518385.38665,684.629686982,654.101219044,66120562.5369,1824.18837516,47552811.3116,68033434.231,4780.10262942,4769.9063468,0.0,1
1.15649048914,9.55025791606e-06,1.19615693485,-4730622.14566,1.79843341551e-05,0.0,5560748.05606,685.250682159,654.38431224,66276188.4463,1831.40267665,47718340.8187,68774167.2435,4800.59202042,4790.54179057,0.0,1
1.20150192304,1.04008290799e-05,0.830965569041,9587513.06028,2.77473125119e-05,0.0,10931152.0347,687.67967552,657.16831881,65391237.0392,1884.60058212,55606395.2186,66806391.8954,4987.43448254,4976.37001066,0.0,0
1.01214642314,1.04996537959e-05,0.970097080295,-78856098.8319,1.41343191439e-05,0.0,5857779.5195,677.253384154,645.077026954,67012036.0879,1641.3925546,56242959.764,70494719.0653,4201.41980245,4192.99573378,0.0,2
1.13532260046,1.00384315101e-05,0.993702322256,-12061673.8683,2.01375931768e-05,0.0,5535342.42364,683.885101863,653.010522334,66177757.3472,1803.19772891,43127378.7035,67505059.3685,4712.72411451,4702.24471866,0.0,1
1.2562406501,9.58768995924e-06,0.901444522822,20421216.5554,3.03637222525e-05,0.0,22088005.3009,691.646562133,660.581403481,64588982.9755,1947.01070419,64353133.3014,65238445.5914,5214.65493857,5201.77525179,0.0,0
1.09067356673,9.73199459457e-06,1.05086463219,-25717338.2171,1.49817007891e-05,0.0,5726227.16554,681.338567151,650.182686993,66719394.5522,1746.00119307,36320276.7449,69258551.6485,4527.3859755,4517.89263918,0.0,1
1.10402279007,1.05019071e-05,0.662896197879,-18303674.6818,2.26682319504e-05,0.0,5591267.57302,681.818182045,651.020158198,66303310.0563,1762.75441108,39476483.7628,68621796.1453,4582.79860158,4572.88078107,0.0,1
1.14931435248,9.7597172695e-06,0.940580927556,-7377295.68848,2.16763070681e-05,0.0,5543954.84932,684.815893808,653.882693778,66214741.7647,1822.51740432,45848060.6046,68636785.5019,4770.80387714,4760.77932197,0.0,1
1.16390016615,1.01983707484e-05,0.752747055978,-1297878.92187,2.55619367479e-05,0.0,5401823.99039,685.665341159,654.850201364,65743584.8497,1838.58322584,48905821.6055,67467563.1634,4831.34958969,4820.41894245,0.0,0
1.10652181692,1.00318486179e-05,0.705869279157,-20445894.8602,2.17643147438e-05,0.0,5682023.17694,682.214223863,651.225004587,66608282.3223,1769.27212013,38203607.6185,68690395.3127,4593.17206203,4584.27277953,0.0,1
1.01037886387,1.00129407408e-05,0.852598052258,-80951381.1246,1.47394967216e-05,0.0,5891433.34581,677.848584822,644.984678235,67094734.2776,1639.52103373,57923946.6322,70794650.5894,4194.08266392,4185.90612711,0.0,2
1.19783424816,1.01497662874e-05,1.02459855287,8568449.8595,2.30124759113e-05,0.0,10020199.0465,687.547970704,656.967230353,65415066.1878,1878.59981106,54925979.5629,66663336.9769,4972.20996411,4960.64975094,0.0,0
0.997892039108,9.69664437534e-06,0.93196230139,-95823470.5242,1.40172348096e-05,0.0,5995258.94474,679.059603732,644.212068447,67408349.5151,1625.3891446,70637344.8457,70923760.7016,4142.24985434,4135.36936594,0.0,2
1.10288522279,1.01622653877e-05,1.08516681117,-21543691.9778,1.62908161843e-05,0.0,5715955.00144,681.731813592,651.004429611,66710193.1272,1764.00299125,37740405.9444,68630239.6614,4578.0765598,4569.23552749,0.0,1
1.25846990732,9.9561005284e-06,0.821419248224,21158145.2233,3.37665221213e-05,0.0,22985211.93,691.706574802,660.733894702,64471629.4007,1949.50387365,64955125.252,65716057.3945,5223.90858529,5211.10851724,0.0,0
1.07164527864,9.89916767999e-06,0.918986981251,-33188102.3245,1.58209454949e-05,0.0,5794596.57923,680.005463155,648.869441711,66911883.2281,1722.60083405,34944984.7369,69797200.5916,4448.39955163,4439.8567913,0.0,1
1.03483923807,1.00724276462e-05,1.16417284182,-57148960.6609,1.23608445874e-05,0.0,5859498.41876,678.099887928,646.539598669,67068737.2233,1672.69168248,41011799.8567,70990936.842,4295.61767723,4287.165428,0.0,2
1.19459853738,1.00872397654e-05,1.03861207612,8018528.84741,2.24589921864e-05,0.0,9480338.9539,687.351601492,656.795447444,65586524.0838,1875.78611277,54595107.6065,66678187.4648,4958.77852866,4947.70363219,0.0,0
1.12366635706,9.87795072641e-06,0.979621036229,-14012196.3243,1.90098923403e-05,0.0,5647829.39663,683.109017058,652.243475893,66512381.123,1790.24759335,41890204.4143,68648644.7445,4664.33904816,4654.97246497,0.0,1
1.20569110293,1.012241111e-05,1.03167975496,9931922.86816,2.3636316001e-05,0.0,11273311.0244,688.010799119,657.39727863,65286866.6157,1887.67619954,55927285.9825,66916294.876,5004.82376826,4992.91384271,0.0,0
1.0828769207,1.03001042266e-05,0.665325416442,-27713529.3624,2.04068579749e-05,0.0,5742297.66711,680.642749676,649.716125568,66765928.835,1738.58229756,35797892.9697,69144798.2409,4495.02209783,4486.59168342,0.0,1
0.971380285702,1.01314256203e-05,0.864721519946,-94516881.0761,1.47478198289e-05,0.0,6031186.35719,682.2001854,642.508549081,67485348.5604,1611.8924671,69486803.1816,69719620.9057,4032.19956595,4025.68482566,0.0,2
1.07116088448,9.88046433753e-06,0.92808171131,-34296279.9503,1.56058957243e-05,0.0,5796902.55162,680.021918927,648.858853334,66917609.066,1722.1445917,34775471.5676,69903468.0891,4446.38883148,4437.85338928,0.0,1
1.13201318914,1.00808656568e-05,1.24624347194,-11564205.6371,1.61910598246e-05,0.0,5607031.40591,683.332782136,652.728444921,66380945.7236,1799.61490484,43380478.6097,67589226.8621,4698.98674812,4689.0770809,0.0,1
1.0026752362,1.01820265207e-05,0.823092573663,-95009261.9617,1.52365456507e-05,0.0,5885314.05835,678.078947119,644.489812039,67077771.8427,1628.7726783,69931437.7182,70588543.4528,4162.10490547,4153.83694612,0.0,2
1.09659475973,1.02472191416e-05,1.15206839235,-23210669.2989,1.50470115263e-05,0.0,5735136.03751,681.262806578,650.594917278,66759725.0208,1755.75074777,37033015.9782,68981446.3101,4551.96484764,4543.2229054,0.0,1
1.07583115254,1.02731947175e-05,0.854680988789,-29623515.9695,1.67604181032e-05,0.0,5739290.3349,680.180922812,649.227927963,66742737.1966,1727.20401384,35346043.4609,69186150.9806,4465.77511419,4456.69757868,0.0,1
1.12310970426,1.020702543e-05,0.972027235787,-13490626.0702,1.92118612992e-05,0.0,5605517.93849,682.916290504,652.206221725,66363822.311,1788.47396872,42200526.927,67846347.229,4662.02838238,4652.26924069,0.0,1
1.07603817032,9.75727017346e-06,0.663479107447,-32072718.4378,1.92637757365e-05,0.0,5782511.60619,680.42257042,649.12265649,66889998.1545,1729.25820601,35087398.4399,69699332.0734,4466.634445,4458.21312525,0.0,1
1.07311407826,9.91741560034e-06,0.885205635704,-33824773.8549,1.65340607465e-05,0.0,5804966.68679,680.081508795,648.961136326,66955688.8785,1725.89812916,34827884.4472,69849707.4836,4454.49653886,4446.31220475,0.0,1
1.05664123046,9.95069625022e-06,0.866576701117,-40744173.2053,1.5489129238e-05,0.0,5826325.51642,679.195888319,647.906564568,66992427.9701,1703.00472762,34964178.1975,70079511.0655,4386.11774764,4377.80764251,0.0,1
1.05469020721,9.72663219106e-06,0.92736169671,-45054966.0351,1.50647556781e-05,0.0,5805963.51558,679.360447387,647.798640595,66929353.9411,1698.68339772,35849831.4286,70476884.7453,4378.01905013,4369.06656142,0.0,1
1.08978594241,1.01044458561e-05,0.956790929079,-25822379.0243,1.68005128734e-05,0.0,5746787.55005,681.012321046,650.120398846,66795553.0486,1747.04181976,36251284.4955,69211043.9657,4523.70144694,4515.06624545,0.0,1
1.13721871172,9.95308195437e-06,0.687598800829,-9216801.89681,2.51913002138e-05,0.0,5557337.29129,684.110664612,653.150404822,66249016.1993,1807.38575566,44982693.1457,67925679.0332,4720.59487235,4710.88054614,0.0,1
0.98341206509,9.80278824568e-06,0.851973601124,-95004037.4719,1.47127543642e-05,0.0,6000285.28799,681.286501023,643.278896136,67393795.6899,1616.00026925,69915638.1457,70156255.9451,4082.14348219,4075.04073999,0.0,2
1.11559665355,9.90395817642e-06,1.01873298478,-16028599.3672,1.78510696578e-05,0.0,5678273.00013,682.556624292,651.72711935,66598891.4967,1779.68785111,40845566.0162,69428963.6187,4630.84170889,4621.65189503,0.0,1
1.08008188565,1.05384940456e-05,0.948210557639,-27981409.468,1.6559829994e-05,0.0,5759167.34648,680.191132669,649.537588972,66817199.9533,1734.65155392,35691958.6036,69126648.6753,4483.41990733,4475.03100928,0.0,1
1.17358195905,9.61347870422e-06,1.11531274611,1002344.33953,1.9209899621e-05,0.0,5432954.30702,686.330884533,655.460016427,65868867.1739,1849.90257556,50599328.3139,67694128.8517,4871.53871202,4860.33072652,0.0,0
1.13557226144,1.03556711028e-05,0.960600770378,-10535857.3495,2.12739414483e-05,0.0,5605949.19581,683.574032087,653.054761925,66402356.3663,1806.59535494,43925666.5479,67870261.8269,4713.76045724,4704.61641917,0.0,1
1.15457812875,9.91138757613e-06,0.930046052848,-5607447.664,2.24936512249e-05,0.0,5515580.08704,685.098386197,654.253140855,66136131.95,1829.02082513,46697992.3721,68518726.5838,4792.65381244,4782.54008132,0.0,1
1.09515615736,9.68491188753e-06,1.01360443416,-24888099.3812,1.6104059099e-05,0.0,5750840.61116,681.568422973,650.444012612,66803605.6414,1753.83357448,36602097.0144,69267394.0194,4545.9932092,4537.17541844,0.0,1
1.14176722258,1.02537007889e-05,0.730118364894,-8533485.0784,2.50236418525e-05,0.0,5514798.06267,684.035400417,653.280390019,66114997.6808,1812.60805325,45095050.7969,68187435.5094,4739.47574093,4729.39918567,0.0,1
1.14062927064,1.01724375656e-05,0.819355215799,-9205735.78584,2.37419731149e-05,0.0,5578324.68282,684.042161346,653.337336307,66313223.2089,1812.86254246,44744757.6741,68096089.2714,4734.75210243,4725.39534607,0.0,1
1.05233937692,9.96170365609e-06,1.14274550068,-44108262.9418,1.28828073519e-05,0.0,5824042.01201,678.924998681,647.647252471,66983441.0641,1695.62925646,35587123.3548,70594797.8875,4368.26075359,4359.495134,0.0,2
0.985733740342,9.71734724086e-06,0.863521233478,-95087082.4782,1.4918913923e-05,0.0,5998326.92164,681.390491211,643.429468469,67398348.4768,1618.84179623,69988823.6902,70229409.0323,4091.78075616,4084.72730042,0.0,2
1.19672694896,9.84524142718e-06,0.955305102521,7361886.41756,2.37556019243e-05,0.0,8812319.11978,687.725325598,656.933705051,65545296.2619,1878.57923587,54164712.8744,66653785.7172,4967.61356513,4956.30331698,0.0,0
1.17859803554,9.50144885652e-06,0.955751584143,2714530.18874,2.19962713447e-05,0.0,5422639.83099,686.761999839,655.769130723,65845407.9951,1856.87508823,51680851.1695,67093698.7196,4892.36044553,4881.35195234,0.0,0
1.00123792048,1.0186253764e-05,0.903611796361,-95763153.0289,1.45904031917e-05,0.0,5893234.68467,678.144881483,644.401860916,67099606.5876,1626.81853074,70583110.7855,70583110.7855,4156.13860791,4147.89133115,0.0,2
1.1208099943,9.84356664161e-06,1.07444848861,-14711671.8155,1.72246936775e-05,0.0,5669385.69103,682.892149426,652.056787859,66572477.1327,1786.55057635,41505950.5336,69134688.1025,4652.48228634,4643.16303309,0.0,1
1.03493190312,1.00338281433e-05,0.793712707403,-56642355.1561,1.56355092329e-05,0.0,5884651.30436,678.290674247,646.647536328,67154068.8096,1675.38328937,40807843.7789,70928760.9598,4296.00232985,4288.59674591,0.0,2
1.00433187188,9.93480606202e-06,0.81483019116,-93527003.6208,1.52589669446e-05,0.0,5888307.25119,678.333739697,644.602830024,67083294.7812,1630.76215559,68624313.0443,70753042.5983,4168.98160017,4160.60282887,0.0,2
1.06912613152,1.01342484774e-05,0.814012627429,-33408189.3701,1.69990124433e-05,0.0,5784890.73895,679.745041764,648.715405306,66881085.9225,1719.37448957,34863685.7341,69730187.8901,4437.94257194,4429.43788257,0.0,1
1.09690643278,1.02471389543e-05,0.926592559464,-23066652.034,1.78472319219e-05,0.0,5717715.00662,681.384504749,650.616626147,66706421.8769,1756.34453925,37062414.4299,68834446.9765,4553.25860247,4544.51176136,0.0,1
1.09684938268,9.87430226078e-06,0.905123444081,-23925679.1646,1.77219908718e-05,0.0,5735505.22592,681.609000585,650.579649275,66766232.2235,1756.47673353,36868155.1471,69138357.1073,4553.0217875,4544.27509813,0.0,1
0.986561977795,9.80442398572e-06,0.955257955135,-95152299.3352,1.39399383558e-05,0.0,5995515.45049,680.76965469,643.481579778,67390360.2139,1616.48574857,70046313.2451,70288685.0695,4095.21876983,4088.07009061,0.0,2
1.0467657829,9.84283437132e-06,0.800138595037,-47987359.9701,1.59005539221e-05,0.0,5854178.02761,678.819123326,647.309930026,67066830.181,1690.06506065,36817988.2919,70658542.5245,4345.12476482,4337.17904591,0.0,2
1.17912762347,9.97345224751e-06,0.856243044021,3116509.53558,2.45602189402e-05,0.0,5374885.10499,686.61086627,655.780808075,65678963.9734,1857.30365172,51566044.6038,66912724.4922,4894.55876502,4883.44704262,0.0,0
1.21197124481,9.74772730346e-06,0.805759470375,11000225.0161,2.82792827337e-05,0.0,12333849.4776,688.785940147,657.789943886,65199157.2314,1896.26757914,56820194.5945,66528500.2701,5030.89263721,5018.96740587,0.0,0
1.00210976551,1.00789770439e-05,1.04155613638,-95361249.6204,1.31962668831e-05,0.0,5902164.03715,678.11473048,644.455774506,67124693.0198,1627.68406152,70238333.3476,70690047.7144,4159.75763663,4151.41490587,0.0,2
1.14199110628,9.6918846755e-06,1.15245628561,-8739894.8445,1.77404268993e-05,0.0,5609762.31566,684.152614629,653.355906645,66418899.8707,1813.34242917,45463382.5661,68323284.502,4740.40508217,4730.71668382,0.0,1
1.14383237996,1.00606873524e-05,0.718696573537,-8225388.20952,2.53282188623e-05,0.0,5513360.54567,684.299370195,653.411581989,66106190.1062,1815.27547585,45238482.3798,68278913.2701,4748.04820921,4737.91071766,0.0,1
1.12293870701,9.71347894051e-06,0.938927063764,-14282804.1768,1.9214864528e-05,0.0,5650033.39831,683.18620903,652.193163381,66523831.122,1789.15593972,41754687.7012,68914112.3502,4661.3185728,4651.86342888,0.0,1
1.02600688414,9.94742607325e-06,0.826308579142,-64876605.3556,1.50326716954e-05,0.0,5914866.10293,677.950877482,646.000800357,67232767.0133,1663.42937235,45866741.8956,70847617.7558,4258.95457607,4251.67699803,0.0,2
1.16883524161,9.63933028421e-06,1.06015512322,-1370601.7008,2.14686708357e-05,0.0,5533764.13398,686.045857671,655.201596004,66205100.1914,1848.38905678,49488409.2446,68231279.1234,4851.83508792,4842.12045291,0.0,1
1.2259483412,9.87279939116e-06,0.727705114396,14354465.7463,3.17723524199e-05,0.0,15773362.4495,689.709945224,658.747267033,65033702.7262,1913.34768873,59494462.766,66518692.1081,5088.91156432,5077.09186396,0.0,0
1.06919684178,1.03336212342e-05,1.07140379217,-33868148.1658,1.42582483636e-05,0.0,5797048.1059,679.501415732,648.710280221,66927937.921,1719.77891709,34765004.0742,69674304.7187,4438.23609023,4429.82420943,0.0,1
1.08950114412,1.01478828441e-05,0.995123736606,-25080922.8796,1.59343292741e-05,0.0,5710223.12052,680.982027382,650.084826945,66667772.0336,1744.68738901,36392792.3351,69074132.9249,4522.51924924,4513.13985844,0.0,1
1.08651892558,9.75960083821e-06,0.893084383504,-28009428.2347,1.70238418087e-05,0.0,5765946.32697,681.140769852,649.955039112,66844890.7854,1742.83365395,35903598.3855,69374554.4272,4510.14006008,4501.55588449,0.0,1
1.00186082218,1.02337371116e-05,1.17473764995,-95417324.5792,1.21929393816e-05,0.0,5906362.4155,677.889910053,644.439868867,67141390.5849,1627.47457773,70284930.2272,70647786.4522,4158.72427287,4150.46692988,0.0,2
1.05890961315,1.02874518817e-05,0.821281714272,-38608203.9353,1.63021716969e-05,0.0,5809310.68739,679.093869601,648.071321415,66942911.4625,1706.38011529,34689455.0865,69779413.2083,4395.53380419,4387.28117846,0.0,1
1.12072706072,1.02299306762e-05,1.10058089881,-14434218.6353,1.71466290025e-05,0.0,5629012.70758,682.661368766,652.052349336,66439127.2365,1785.45231262,41612590.0869,68420491.4571,4652.13802905,4642.518602,0.0,1
1.04679400248,1.0121040549e-05,0.862122262394,-45015337.5519,1.51545179354e-05,0.0,5832694.24449,678.598499346,647.298286865,66997033.5818,1689.31020929,35869618.5837,70364782.6428,4345.24190429,4336.90495537,0.0,2
1.08686120138,1.0293435195e-05,0.794881843899,-26346573.6032,1.88339722909e-05,0.0,5740821.66357,680.801259399,649.952498922,66764965.3716,1743.69171826,36074759.0714,69161164.326,4511.56084693,4503.0689343,0.0,1
0.932394876764,9.43133476539e-06,0.980662685054,-92689950.7794,1.37891618019e-05,0.0,6082942.731,690.247937914,639.980703979,67552385.1122,1609.77907529,67878582.3825,68089113.8121,3870.37113345,3863.05920617,0.0,2
1.13461813677,1.02080240282e-05,0.856800145358,-11089378.0773,2.26427196015e-05,0.0,5608093.88975,683.657205808,652.994331244,66405343.5036,1805.53085817,43724626.6691,67763851.9141,4709.79988573,4700.67096245,0.0,1
1.07383713692,1.01071500522e-05,0.967365484133,-31405999.7473,1.55315780048e-05,0.0,5783596.93217,679.917439342,648.971322068,66886858.0199,1725.45308414,35187917.3491,69493055.4574,4457.49795535,4448.92073006,0.0,1
1.09057456812,9.73852992485e-06,0.939568616076,-26092559.8984,1.6500836428e-05,0.0,5758476.63017,681.342560724,650.193306221,66832214.7511,1747.97045431,36270407.5394,69377136.0711,4526.97503227,4518.22960757,0.0,1
1.08114645823,9.40496237929e-06,0.829592088974,-30477528.0311,1.70072734676e-05,0.0,5792720.39193,680.900910384,649.460990471,66918305.0192,1735.59861851,35507093.341,69473138.3369,4487.83894811,4479.24199054,0.0,1
1.07234436031,9.53959401266e-06,1.08041912576,-34495968.3329,1.38650981711e-05,0.0,5828434.64103,680.261111643,648.941039699,67019761.5591,1724.10187084,34796384.4911,70205114.9479,4451.30143965,4442.93721082,0.0,1
1.17029509464,1.01543851744e-05,1.08165093655,1213887.50042,2.01337794003e-05,0.0,5451317.65782,685.784619184,655.257708767,65903278.3608,1846.82240759,50485834.3959,67528457.1285,4857.89493785,4847.25632967,0.0,0
